
                                 *****************
                                 * O   R   C   A *
                                 *****************

                                            #,                                       
                                            ###                                      
                                            ####                                     
                                            #####                                    
                                            ######                                   
                                           ########,                                 
                                     ,,################,,,,,                         
                               ,,#################################,,                 
                          ,,##########################################,,             
                       ,#########################################, ''#####,          
                    ,#############################################,,   '####,        
                  ,##################################################,,,,####,       
                ,###########''''           ''''###############################       
              ,#####''   ,,,,##########,,,,          '''####'''          '####       
            ,##' ,,,,###########################,,,                        '##       
           ' ,,###''''                  '''############,,,                           
         ,,##''                                '''############,,,,        ,,,,,,###''
      ,#''                                            '''#######################'''  
     '                                                          ''''####''''         
             ,#######,   #######,   ,#######,      ##                                
            ,#'     '#,  ##    ##  ,#'     '#,    #''#        ,####,    ,#,          
            ##       ##  ##   ,#'  ##            #'  '#       #'       ,# #          
            ##       ##  #######   ##           ,######,      #####,      #          
            '#,     ,#'  ##    ##  '#,     ,#' ,#      #,     #,   #      #          
             '#######'   ##     ##  '#######'  #'      '#     '####' #    #          



                #########################################################
                #                        -***-                          #
                #          Department of theory and spectroscopy        #
                #                                                       #
                #                      Frank Neese                      #
                #                                                       #
                #     Directorship, Architecture, Infrastructure        #
                #                    SHARK, DRIVERS                     #
                #        Core code/Algorithms in most modules           #
                #                                                       #
                #        Max Planck Institute fuer Kohlenforschung      #
                #                Kaiser Wilhelm Platz 1                 #
                #                 D-45470 Muelheim/Ruhr                 #
                #                      Germany                          #
                #                                                       #
                #                  All rights reserved                  #
                #                        -***-                          #
                #########################################################


                         Program Version 6.1.1  -  RELEASE   -


 With contributions from (in alphabetic order):
[Max-Planck-Institut fuer Kohlenforschung]                               
  Daniel Aravena         : Magnetic Suceptibility                        
  Michael Atanasov       : Ab Initio Ligand Field Theory (pilot matlab implementation)
  Alexander A. Auer      : GIAO ZORA, VPT2 properties, NMR spectrum      
  Ute Becker             : All parallelization in ORCA, NUMFREQ, NUMCALC 
  Giovanni Bistoni       : ED, misc. LED, open-shell LED, HFLD           
  Dmytro Bykov           : pre 5.0 version of the SCF Hessian            
  Marcos Casanova-Páez   : Triplet and SCS-CIS(D). UHF-(DLPNO)-IP/EA/STEOM-CCSD. UHF-CVS-IP/STEOM-CCSD   
  Vijay G. Chilkuri      : MRCI spin determinant printing, contributions to CSF-ICE 
  Pauline Colinet        : FMM embedding                                 
  Dipayan Datta          : RHF DLPNO-CCSD density                        
  Achintya Kumar Dutta   : EOM-CC, STEOM-CC                              
  Nicolas Foglia         : Exact transition moments, OPA infrastructure, MCD improvements    
  Dmitry Ganyushin       : Spin-Orbit,Spin-Spin,Magnetic field MRCI      
  Miquel Garcia-Rates    : C-PCM and meta-GGA Hessian, CCSD/C-PCM, Gaussian charge scheme 
  Tiago L. C. Gouveia    : GS-ROHF, GS-ROCIS                             
  Yang Guo               : DLPNO-NEVPT2, F12-NEVPT2, CIM, IAO-localization        
  Andreas Hansen         : Spin unrestricted coupled pair/coupled cluster methods 
  Ingolf Harden          : AUTO-CI MPn and infrastructure                
  Benjamin Helmich-Paris : MC-RPA, TRAH-(SCF,CASSCF), AVAS, COSX integrals, SCF dyn. polar., MC-PDFT, srDFT 
  Lee Huntington         : MR-EOM, pCC                                   
  Robert Izsak           : Overlap fitted RIJCOSX, COSX-SCS-MP3, EOM     
  Riya Kayal             : Wick's Theorem for AUTO-CI, AUTO-CI UHF-CCSDT 
  Emily Kempfer          : AUTO-CI RHF CISDT and CCSDT, approximate NEVPT4
  Christian Kollmar      : KDIIS, OOCD, Brueckner-CCSD(T), CCSD density, CASPT2, CASPT2-K, improved NEVPT2 
  Axel Koslowski         : Symmetry handling                             
  Simone Kossmann        : meta-GGA functionals, TD-DFT gradient, OOMP2, (MP2 Hessian; deprecated post 5.0) 
  Lucas Lang             : DCDCAS, Hyperfine gauge corrections, ICE-SOC+SSC
  Marvin Lechner         : AUTO-CI (C++ implementation), FIC-MRCC        
  Spencer Leger          : CASSCF response                               
  Dagmar Lenk            : GEPOL surface, SMD, ORCA-2-JSON               
  Dimitrios Liakos       : Extrapolation schemes; Compound Job, Property file
  Dimitrios Manganas     : Further ROCIS development; embedding schemes. LFT, Crystal Embedding 
  Dimitrios Pantazis     : SARC Basis sets                               
  Anastasios Papadopoulos: AUTO-CI, single reference methods and gradients 
  Taras Petrenko         : pre 6.0 DFT Hessian and TD-DFT gradient,  ECA, NRVS 
  Petra Pikulova         : Analytic Raman intensities                    
  Peter Pinski           : DLPNO-MP2, DLPNO-MP2 Gradient                 
  Shashank Vittal Rao    : ES-AILFT, MagRelax                            
  Christoph Reimann      : Effective Core Potentials                     
  Marius Retegan         : Local ZFS, SOC                                
  Christoph Riplinger    : Optimizer, TS searches, QM/MM, DLPNO-CCSD(T), (RO)-DLPNO pert. Triples 
  Michael Roemelt        : Original ROCIS implementation, recursive CI coupling coefficients
  Masaaki Saitow         : Open-shell DLPNO-CCSD energy and density      
  Barbara Sandhoefer     : DKH picture change effects                    
  Yorick L. A. Schmerwitz: GMF and freeze-and-release deltaSCF, NEB S-IDPP initial path                    
  Kantharuban Sivalingam : CASSCF convergence/infrastructure, NEVPT2, NEVPT3, NEVPT4(SD), FIC-MRCI and CEPA variants
  Bernardo de Souza      : ESD, SOC TD-DFT                               
  Georgi L. Stoychev     : AutoAux, RI-MP2 NMR, DLPNO-MP2 response, X2C  
  Van Anh Tran           : RI-MP2 g-tensors                              
  Willem Van den Heuvel  : Paramagnetic NMR                              
  Zikuan Wang            : NOTCH, Electric field optimization            
  Frank Wennmohs         : Technical directorship and infrastructure     
  Hang Xu                : AUTO-CI-Response properties                   
                                                                         
[FACCTs GmbH]                                                            
  Markus Bursch, Nicolas Foglia, Miquel Garcia-Rates, Ingolf Harden, Hagen Neugebauer, Anastasios Papadopoulos, 
  Christoph Riplinger, Bernardo de Souza, Georgi L. Stoychev                                                    
                                                                 
  APM, various basis sets, CI-OPT, improved COSX, DLPNO-Multilevel,           
  DOCKER, DRACO, updates on ESD, Fragmentator, GOAT, IRC, LR-CPCM, L-BFGS, MBIS, meta-GGA TD-DFT gradient, ML-optimized integration grids, 
  MM, NACMEs, nearIR, NEB, NEB-TS, NL-DFT gradient (VV10), 2- and 3-layer-ONIOM, interface openCOSMO-RS, QMMM,   
  Crystal-QMMM, RESP, rigid body optimization, SF, symmetry and pop. for TD-DFT, various functionals, SOLVATOR                                   
                                                                         
[Other institutions]                                                     
  V. Asgeirsson          : NEB                                           
  Christoph Bannwarth    : sTDA-DFT, sTD-DFT, PBEh-3c, B97-3c, D3        
  Giovanni Bistoni       : ETS/NOCV, ADLD/ADEX, COVALED                  
  Martin Brehm           : Molecular dynamics                            
  Ronald Cardenas        : ETS/NOCV                                      
  Martina Colucci        : COVALED                                       
  Sebastian Ehlert       : rSCAN, r2SCAN, r2SCAN-3c, D4, dhf basis sets  
  Marvin Friede          : D4 for Fr, Ra, Ac-Lr                          
  Lars Goerigk           : TD-DFT with DH, B97 family of functionals     
  Stefan Grimme          : VdW corrections, initial TS optimization, DFT functionals, gCP, sTDA/sTD-DF 
  Waldemar Hujo          : DFT-NL                                        
  H. Jonsson             : NEB                                           
  Holger Kruse           : gCP                                           
  Marcel Mueller         : wB97X-3c, vDZP basis set                      
  Hagen Neugebauer       : wr2SCAN, Native XTB                           
  Gianluca Regni         : ADLD/ADEX                                     
  Tobias Risthaus        : pre 6.0 range-separated hybrid DFT and stability analysis
  Lukas Wittmann         : regularized MP2, r2SCAN double-hybrids, wr2SCAN        
                                                                         
We gratefully acknowledge several colleagues who have allowed us to      
interface, adapt or use parts of their codes:                            
  Ed Valeev, F. Pavosevic, A. Kumar             : LibInt (2-el integral package), F12 methods 
  Garnet Chan, S. Sharma, J. Yang, R. Olivares  : DMRG                   
  Ulf Ekstrom                                   : XCFun DFT Library      
  Mihaly Kallay                                 : mrcc  (arbitrary order and MRCC methods)
  Frank Weinhold                                : gennbo (NPA and NBO analysis)           
  Simon Mueller                                 : openCOSMO-RS                            
  Christopher J. Cramer and Donald G. Truhlar   : smd solvation model                     
  S Lehtola, MJT Oliveira, MAL Marques          : LibXC Library                           
  Liviu Ungur et al                             : ANISO software                          


 Your calculation uses the libint2 library for the computation of 2-el integrals
 For citations please refer to: http://libint.valeyev.net

 Your ORCA version has been built with support for libXC version: 7.0.0
 For citations please refer to: https://libxc.gitlab.io

 This ORCA versions uses:
   CBLAS   interface :  Fast vector & matrix operations
   LAPACKE interface :  Fast linear algebra routines
   Shared memory     :  Shared parallel matrices


  ***********************************
  * Starting time: Fri Sep  4 01:45:56 2026
  * Host name:     DESKTOP-VL9OK5A
  * Process ID:    7864
  * Working dir.:  C:\CompChem
  ***********************************

NOTE: MaxCore=800 MB was set to SCF,MP2,MDCI,CIPSI,MRCI,RASCI and CIS
      => If you want to overwrite this, your respective input block should be placed after the MaxCore statement
Your calculation utilizes the atom-pairwise dispersion correction
with the Becke-Johnson damping scheme (D3BJ)


Warning: RI is on but no J-basis has been assigned. Assigning Def2/J (nothing to worry about!)
================================================================================

----- Orbital basis set information -----
Your calculation utilizes the basis: 6-31G*
   H-He, Li-Ne : W. J. Hehre, R. Ditchfield and J.A. Pople, J. Chem. Phys. 56, 2257 (1972).
                 Note: He and Ne are unpublished basis sets taken from the Gaussian program.
                 Note: Li and B from J. D. Dill and J. A. Pople, J. Chem. Phys. 62, 2921 (1975).
   Na - Ar     : M. M. Francl, W. J. Pietro, W. J. Hehre, J. S. Binkley, M. S. Gordon, 
                 D. J. DeFrees and J. A. Pople, J. Chem. Phys. 77, 3654 (1982).
   Sc - Zn     : V. A. Rassolov, J. A. Pople, M. A. Ratner, and T. L. Windus, J. Chem. Phys. 109, 1223 (1998).
   K,Ca,Ga-Kr  : V.A. Rassolov, M.A. Ratner, J.A. Pople, P.C. Redfern, and L.A. Curtiss, J. Comput. Chem. 22, 976 (2001).
----- AuxJ basis set information -----
Your calculation utilizes the auxiliary basis: def2/J
   H-Rn: F. Weigend, Phys. Chem. Chem. Phys. 8, 1057 (2006).
   Fr-Lr: K. Eichkorn, F. Weigend, O. Treutler, R. Ahlrichs; Theor. Chem. Acc. 97, 119 (1997).

================================================================================
                                        WARNINGS
                       Please study these warnings very carefully!
================================================================================


================================================================================
                                       INPUT FILE
================================================================================
NAME = doxorubicin_on_go_D3.inp
|  1> ! B3LYP D3BJ 6-31G* SP
|  2> %maxcore 800
|  3> 
|  4> * xyz 0 1
|  5>   C       -0.60306292988360   0.33251663612880   -3.68223729426634
|  6>   C       -1.48881143295596   0.89659283235758   -2.60976131541109
|  7>   C       -1.00365554556704   0.87189661745404   -1.21426568569248
|  8>   C       -1.72630313960671   1.52705072811286   -0.19214825752108
|  9>   C       -1.31483883007530   1.47152966671393   1.12160978838174
| 10>   C       -0.13141990807869   0.77328214587179   1.48251432997823
| 11>   C       0.32540598856466   0.70306848220884   2.82415408503319
| 12>   C       1.50589460434267   0.05016027270042   3.12922404440289
| 13>   C       2.28240516221834   -0.55090847385668   2.11358411119493
| 14>   C       1.86153949372688   -0.50893795423582   0.79152640120716
| 15>   C       2.65526296137724   -1.09292369879020   -0.27462108770709
| 16>   C       2.27050361075889   -1.01256645039902   -1.56912843096542
| 17>   C       1.02834058880603   -0.37094676826210   -1.96354732040912
| 18>   C       0.68868246223750   -0.23083336547217   -3.27867918834189
| 19>   C       0.18506309834849   0.19487491900800   -0.90217067842960
| 20>   C       0.63185698626814   0.14573494222996   0.44988112585141
| 21>   H       -0.68624813386052   0.71712629283256   -4.69841052374440
| 22>   H       -2.19740132283011   1.68737515034592   -2.86530150780920
| 23>   H       -2.63773255176061   2.06098776929097   -0.45293649324165
| 24>   H       -1.89615838184893   1.96107536657989   1.89952545658261
| 25>   H       -0.26065476042473   1.17853996900514   3.60965382611384
| 26>   H       3.21961310461212   -1.03174053978079   2.38039285481716
| 27>   H       3.58283758650602   -1.58698782497577   -0.00021459706902
| 28>   H       2.88621456267703   -1.44126175399224   -2.35657209397153
| 29>   H       1.38713255955194   -0.52417795015041   -4.05684140033782
| 30>   O       -1.78785673852912   -0.36215636314299   -3.22854845748921
| 31>   O       1.99603281922826   -0.04547409959703   4.40209225264528
| 32>   H       1.38420774239225   0.40246834692798   5.00757518918786
| 33>   C       8.84227285630085   -5.50845299988359   -6.38756636495780
| 34>   C       8.98324890707044   -4.27825066928059   -5.48782398527885
| 35>   C       9.64536012401062   -3.04951113313160   -6.14796598094897
| 36>   C       8.76414180191321   -2.36824347977859   -7.23465936861870
| 37>   C       7.27030088506789   -2.55427080898952   -6.89130250761496
| 38>   C       7.02351588197875   -2.80056474017495   -5.40811930233384
| 39>   O       7.70615670147521   -3.94073344962880   -4.90933046927641
| 40>   O       7.39142967225933   -1.61787266323707   -4.71407607835113
| 41>   C       6.94230349417397   -1.53817474329830   -3.35466151481496
| 42>   C       8.13727537622270   -1.79944451670994   -2.42092973532643
| 43>   C       8.00751834134722   -1.13505607638273   -1.05149764452590
| 44>   C       7.88092431665663   0.37772161861963   -1.24403174264528
| 45>   C       6.76174051062799   0.72856305259431   -2.19897482202392
| 46>   C       6.30164853449043   -0.17059178112397   -3.15102876208257
| 47>   C       5.17965785002419   0.16888424255484   -3.96714766214827
| 48>   C       4.58581866052500   1.44143346473881   -3.87408057395465
| 49>   C       5.10074723208672   2.37971595389720   -2.93452724716103
| 50>   C       6.16799065350727   2.01871041268159   -2.09429397725395
| 51>   O       6.67532491424741   2.85275740926912   -1.17399749858725
| 52>   C       4.51001100324547   3.70549273183660   -2.81934322535933
| 53>   O       4.93755731326109   4.54407494601151   -1.99773706921791
| 54>   C       3.36824203674367   4.05844877007517   -3.70552494317499
| 55>   C       2.83645421378483   3.12379041844690   -4.62805271809499
| 56>   C       3.44308876411120   1.77453689227495   -4.73857513781641
| 57>   O       3.00581040878704   0.92720227795222   -5.54677046143900
| 58>   C       1.72795867195508   3.52910327913788   -5.42779156687316
| 59>   C       1.21467637248587   4.83041987562802   -5.29424852581645
| 60>   C       1.76745608199946   5.72562584419660   -4.38169965008191
| 61>   C       2.83964336660774   5.34575318412550   -3.58246554927261
| 62>   O       1.20371954427959   2.63411900875182   -6.29226594148832
| 63>   C       0.13682042073179   3.02959979258051   -7.14686022886841
| 64>   O       4.70893431202151   -0.77854322536999   -4.79139216322299
| 65>   C       6.85175832036721   -1.74177125459285   -0.22627820542402
| 66>   O       6.32530423277993   -2.79881225178210   -0.54335912863253
| 67>   C       6.43430237229540   -1.08683524545802   1.08571092415197
| 68>   O       5.51340610289999   -1.89779493003604   1.77320450479194
| 69>   O       9.18492030227368   -1.34006874451563   -0.25524151736406
| 70>   N       9.00391810083780   -2.79173779130597   -8.61641542907574
| 71>   O       10.89769813846286   -3.38786231843562   -6.74434909255825
| 72>   H       9.81480009668485   -5.78764952724792   -6.80568315441790
| 73>   H       8.14629543938658   -5.33456119730561   -7.21431944008694
| 74>   H       8.45425428037938   -6.34916391428442   -5.80294718104444
| 75>   H       9.61375389632476   -4.56632177774278   -4.63256940162256
| 76>   H       9.79720513050016   -2.30987555431100   -5.35031633507376
| 77>   H       9.00416235570335   -1.29963821864770   -7.19854301258398
| 78>   H       6.87791778632318   -3.42018083385499   -7.43799065815481
| 79>   H       6.68774933648106   -1.68638777514248   -7.21142301169643
| 80>   H       5.96572564119305   -3.00628741355938   -5.21510067343771
| 81>   H       6.17647513591066   -2.30437823137910   -3.18468830196898
| 82>   H       9.03617392077481   -1.38677076551132   -2.89239041056245
| 83>   H       8.27067564579521   -2.88175870817701   -2.32389820216414
| 84>   H       8.84543343485798   0.73792182740997   -1.62747056722519
| 85>   H       7.73387048486398   0.89299100513903   -0.29104212305958
| 86>   H       6.14756008152178   3.69834256329298   -1.24390553505622
| 87>   H       0.37545627345505   5.14637249878571   -5.90178899891426
| 88>   H       1.34999067020226   6.72528400958059   -4.29687716696259
| 89>   H       3.28206611332635   6.02121976701279   -2.85978674729115
| 90>   H       0.42970267014490   3.86477237113466   -7.79565691671474
| 91>   H       -0.08088388454889   2.15372207731747   -7.75977392460237
| 92>   H       -0.75841601295599   3.30566443489361   -6.57504900349653
| 93>   H       3.95113271381001   -0.34966745099301   -5.28981240242162
| 94>   H       5.98680989286537   -0.10504412000606   0.86739540537148
| 95>   H       7.33511646685103   -0.90438027062917   1.68992747722844
| 96>   H       5.41350468151117   -2.70098841990550   1.22397263514998
| 97>   H       9.39415266800356   -2.28934326852395   -0.27987971708212
| 98>   H       10.00108252742637   -2.70783909498566   -8.80919764002986
| 99>   H       8.79290112827011   -3.78413474431796   -8.71582521065891
|100>   H       11.52604935482465   -3.58143666541257   -6.03139391166726
|101> *
|102> 
|103>                          ****END OF INPUT****
================================================================================

                       ****************************
                       * Single Point Calculation *
                       ****************************

---------------------------------
CARTESIAN COORDINATES (ANGSTROEM)
---------------------------------
  C     -0.603063    0.332517   -3.682237
  C     -1.488811    0.896593   -2.609761
  C     -1.003656    0.871897   -1.214266
  C     -1.726303    1.527051   -0.192148
  C     -1.314839    1.471530    1.121610
  C     -0.131420    0.773282    1.482514
  C      0.325406    0.703068    2.824154
  C      1.505895    0.050160    3.129224
  C      2.282405   -0.550908    2.113584
  C      1.861539   -0.508938    0.791526
  C      2.655263   -1.092924   -0.274621
  C      2.270504   -1.012566   -1.569128
  C      1.028341   -0.370947   -1.963547
  C      0.688682   -0.230833   -3.278679
  C      0.185063    0.194875   -0.902171
  C      0.631857    0.145735    0.449881
  H     -0.686248    0.717126   -4.698411
  H     -2.197401    1.687375   -2.865302
  H     -2.637733    2.060988   -0.452936
  H     -1.896158    1.961075    1.899525
  H     -0.260655    1.178540    3.609654
  H      3.219613   -1.031741    2.380393
  H      3.582838   -1.586988   -0.000215
  H      2.886215   -1.441262   -2.356572
  H      1.387133   -0.524178   -4.056841
  O     -1.787857   -0.362156   -3.228548
  O      1.996033   -0.045474    4.402092
  H      1.384208    0.402468    5.007575
  C      8.842273   -5.508453   -6.387566
  C      8.983249   -4.278251   -5.487824
  C      9.645360   -3.049511   -6.147966
  C      8.764142   -2.368243   -7.234659
  C      7.270301   -2.554271   -6.891303
  C      7.023516   -2.800565   -5.408119
  O      7.706157   -3.940733   -4.909330
  O      7.391430   -1.617873   -4.714076
  C      6.942303   -1.538175   -3.354662
  C      8.137275   -1.799445   -2.420930
  C      8.007518   -1.135056   -1.051498
  C      7.880924    0.377722   -1.244032
  C      6.761741    0.728563   -2.198975
  C      6.301649   -0.170592   -3.151029
  C      5.179658    0.168884   -3.967148
  C      4.585819    1.441433   -3.874081
  C      5.100747    2.379716   -2.934527
  C      6.167991    2.018710   -2.094294
  O      6.675325    2.852757   -1.173997
  C      4.510011    3.705493   -2.819343
  O      4.937557    4.544075   -1.997737
  C      3.368242    4.058449   -3.705525
  C      2.836454    3.123790   -4.628053
  C      3.443089    1.774537   -4.738575
  O      3.005810    0.927202   -5.546770
  C      1.727959    3.529103   -5.427792
  C      1.214676    4.830420   -5.294249
  C      1.767456    5.725626   -4.381700
  C      2.839643    5.345753   -3.582466
  O      1.203720    2.634119   -6.292266
  C      0.136820    3.029600   -7.146860
  O      4.708934   -0.778543   -4.791392
  C      6.851758   -1.741771   -0.226278
  O      6.325304   -2.798812   -0.543359
  C      6.434302   -1.086835    1.085711
  O      5.513406   -1.897795    1.773205
  O      9.184920   -1.340069   -0.255242
  N      9.003918   -2.791738   -8.616415
  O     10.897698   -3.387862   -6.744349
  H      9.814800   -5.787650   -6.805683
  H      8.146295   -5.334561   -7.214319
  H      8.454254   -6.349164   -5.802947
  H      9.613754   -4.566322   -4.632569
  H      9.797205   -2.309876   -5.350316
  H      9.004162   -1.299638   -7.198543
  H      6.877918   -3.420181   -7.437991
  H      6.687749   -1.686388   -7.211423
  H      5.965726   -3.006287   -5.215101
  H      6.176475   -2.304378   -3.184688
  H      9.036174   -1.386771   -2.892390
  H      8.270676   -2.881759   -2.323898
  H      8.845433    0.737922   -1.627471
  H      7.733870    0.892991   -0.291042
  H      6.147560    3.698343   -1.243906
  H      0.375456    5.146372   -5.901789
  H      1.349991    6.725284   -4.296877
  H      3.282066    6.021220   -2.859787
  H      0.429703    3.864772   -7.795657
  H     -0.080884    2.153722   -7.759774
  H     -0.758416    3.305664   -6.575049
  H      3.951133   -0.349667   -5.289812
  H      5.986810   -0.105044    0.867395
  H      7.335116   -0.904380    1.689927
  H      5.413505   -2.700988    1.223973
  H      9.394153   -2.289343   -0.279880
  H     10.001083   -2.707839   -8.809198
  H      8.792901   -3.784135   -8.715825
  H     11.526049   -3.581437   -6.031394

----------------------------
CARTESIAN COORDINATES (A.U.)
----------------------------
  NO LB      ZA    FRAG     MASS         X           Y           Z
   0 C     6.0000    0    12.011   -1.139624    0.628365   -6.958420
   1 C     6.0000    0    12.011   -2.813446    1.694315   -4.931734
   2 C     6.0000    0    12.011   -1.896634    1.647646   -2.294630
   3 C     6.0000    0    12.011   -3.262240    2.885708   -0.363108
   4 C     6.0000    0    12.011   -2.484685    2.780788    2.119535
   5 C     6.0000    0    12.011   -0.248348    1.461291    2.801546
   6 C     6.0000    0    12.011    0.614928    1.328607    5.336878
   7 C     6.0000    0    12.011    2.845728    0.094789    5.913376
   8 C     6.0000    0    12.011    4.313121   -1.041066    3.994095
   9 C     6.0000    0    12.011    3.517800   -0.961753    1.495768
  10 C     6.0000    0    12.011    5.017720   -2.065326   -0.518959
  11 C     6.0000    0    12.011    4.290630   -1.913473   -2.965223
  12 C     6.0000    0    12.011    1.943282   -0.700988   -3.710567
  13 C     6.0000    0    12.011    1.301421   -0.436212   -6.195806
  14 C     6.0000    0    12.011    0.349719    0.368260   -1.704856
  15 C     6.0000    0    12.011    1.194037    0.275399    0.850152
  16 H     1.0000    0     1.008   -1.296821    1.355172   -8.878709
  17 H     1.0000    0     1.008   -4.152487    3.188677   -5.414635
  18 H     1.0000    0     1.008   -4.984592    3.894702   -0.855926
  19 H     1.0000    0     1.008   -3.583220    3.705895    3.589583
  20 H     1.0000    0     1.008   -0.492566    2.227118    6.821257
  21 H     1.0000    0     1.008    6.084187   -1.949707    4.498291
  22 H     1.0000    0     1.008    6.770582   -2.998972   -0.000406
  23 H     1.0000    0     1.008    5.454155   -2.723590   -4.453276
  24 H     1.0000    0     1.008    2.621301   -0.990553   -7.666319
  25 O     8.0000    0    15.999   -3.378560   -0.684376   -6.101072
  26 O     8.0000    0    15.999    3.771955   -0.085934    8.318749
  27 H     1.0000    0     1.008    2.615774    0.760555    9.462946
  28 C     6.0000    0    12.011   16.709474  -10.409468  -12.070751
  29 C     6.0000    0    12.011   16.975880   -8.084722  -10.370484
  30 C     6.0000    0    12.011   18.227089   -5.762741  -11.617972
  31 C     6.0000    0    12.011   16.561828   -4.475332  -13.671525
  32 C     6.0000    0    12.011   13.738878   -4.826872  -13.022674
  33 C     6.0000    0    12.011   13.272522   -5.292300  -10.219864
  34 O     8.0000    0    15.999   14.562526   -7.446907   -9.277290
  35 O     8.0000    0    15.999   13.967778   -3.057336   -8.908313
  36 C     6.0000    0    12.011   13.119052   -2.906729   -6.339392
  37 C     6.0000    0    12.011   15.377222   -3.400457   -4.574894
  38 C     6.0000    0    12.011   15.132017   -2.144945   -1.987043
  39 C     6.0000    0    12.011   14.892789    0.713790   -2.350879
  40 C     6.0000    0    12.011   12.777838    1.376785   -4.155460
  41 C     6.0000    0    12.011   11.908390   -0.322372   -5.954581
  42 C     6.0000    0    12.011    9.788135    0.319145   -7.496823
  43 C     6.0000    0    12.011    8.665941    2.723914   -7.320951
  44 C     6.0000    0    12.011    9.639015    4.497011   -5.545453
  45 C     6.0000    0    12.011   11.655813    3.814810   -3.957642
  46 O     8.0000    0    15.999   12.614536    5.390930   -2.218534
  47 C     6.0000    0    12.011    8.522686    7.002366   -5.327787
  48 O     8.0000    0    15.999    9.330631    8.587057   -3.775176
  49 C     6.0000    0    12.011    6.365055    7.669357   -7.002427
  50 C     6.0000    0    12.011    5.360122    5.903108   -8.745752
  51 C     6.0000    0    12.011    6.506495    3.353389   -8.954609
  52 O     8.0000    0    15.999    5.680158    1.752158  -10.481877
  53 C     6.0000    0    12.011    3.265369    6.669039  -10.257040
  54 C     6.0000    0    12.011    2.295406    9.128171  -10.004680
  55 C     6.0000    0    12.011    3.340008   10.819865   -8.280212
  56 C     6.0000    0    12.011    5.366148   10.102009   -6.769879
  57 O     8.0000    0    15.999    2.274700    4.977764  -11.890659
  58 C     6.0000    0    12.011    0.258553    5.725114  -13.505609
  59 O     8.0000    0    15.999    8.898596   -1.471233   -9.054419
  60 C     6.0000    0    12.011   12.947947   -3.291471   -0.427604
  61 O     8.0000    0    15.999   11.953093   -5.288989   -1.026800
  62 C     6.0000    0    12.011   12.159069   -2.053821    2.051696
  63 O     8.0000    0    15.999   10.418828   -3.586313    3.350871
  64 O     8.0000    0    15.999   17.356984   -2.532363   -0.482337
  65 N     7.0000    0    14.007   17.014939   -5.275620  -16.282665
  66 O     8.0000    0    15.999   20.593665   -6.402132  -12.744973
  67 H     1.0000    0     1.008   18.547284  -10.937073  -12.860877
  68 H     1.0000    0     1.008   15.394267  -10.080860  -13.633088
  69 H     1.0000    0     1.008   15.976225  -11.998181  -10.965981
  70 H     1.0000    0     1.008   18.167362   -8.629098   -8.754287
  71 H     1.0000    0     1.008   18.514035   -4.365032  -10.110633
  72 H     1.0000    0     1.008   17.015401   -2.455960  -13.603275
  73 H     1.0000    0     1.008   12.997381   -6.463205  -14.055765
  74 H     1.0000    0     1.008   12.638015   -3.186811  -13.627615
  75 H     1.0000    0     1.008   11.273588   -5.681060   -9.855112
  76 H     1.0000    0     1.008   11.671846   -4.354644   -6.018189
  77 H     1.0000    0     1.008   17.075894   -2.620617   -5.465826
  78 H     1.0000    0     1.008   15.629312   -5.445735   -4.391531
  79 H     1.0000    0     1.008   16.715447    1.394470   -3.075474
  80 H     1.0000    0     1.008   14.614897    1.687508   -0.549990
  81 H     1.0000    0     1.008   11.617205    6.988855   -2.350641
  82 H     1.0000    0     1.008    0.709510    9.725235  -11.152765
  83 H     1.0000    0     1.008    2.551113   12.708945   -8.119921
  84 H     1.0000    0     1.008    6.202206   11.378456   -5.404214
  85 H     1.0000    0     1.008    0.812020    7.303361  -14.731657
  86 H     1.0000    0     1.008   -0.152848    4.069945  -14.663848
  87 H     1.0000    0     1.008   -1.433199    6.246800  -12.425042
  88 H     1.0000    0     1.008    7.466559   -0.660776   -9.996297
  89 H     1.0000    0     1.008   11.313431   -0.198505    1.639140
  90 H     1.0000    0     1.008   13.861361   -1.709031    3.193500
  91 H     1.0000    0     1.008   10.230041   -5.104128    2.312973
  92 H     1.0000    0     1.008   17.752376   -4.326232   -0.528896
  93 H     1.0000    0     1.008   18.899307   -5.117074  -16.646971
  94 H     1.0000    0     1.008   16.616175   -7.150978  -16.470523
  95 H     1.0000    0     1.008   21.781077   -6.767934  -11.397683

--------------------------------
INTERNAL COORDINATES (ANGSTROEM)
--------------------------------
 C      0   0   0     0.000000000000     0.00000000     0.00000000
 C      1   0   0     1.500978711064     0.00000000     0.00000000
 C      2   1   0     1.477631276964   118.34407616     0.00000000
 C      3   2   1     1.412858977696   120.50012137   172.61701964
 C      4   3   2     1.377804655766   121.22348596   177.53692110
 C      5   4   3     1.420662533273   120.71732752     1.30686506
 C      6   5   4     1.419019764046   122.18642611   179.60696556
 C      7   6   5     1.383079962307   120.44279069   182.11304375
 C      8   7   6     1.412719631953   120.75838194     0.39365516
 C      9   8   7     1.388065569046   120.34564998   359.19686786
 C     10   9   8     1.451794324641   121.43385591   178.62282398
 C     11  10   9     1.352865960473   121.55424842   182.34608320
 C     12  11  10     1.452656549210   121.95350336   358.34595779
 C     13  12  11     1.365493038663   121.30030316   176.28426636
 C      3   2   1     1.403144215011   119.75447179   352.74017991
 C     15   3   2     1.424810021392   119.56224097   181.53613682
 H      1   2   3     1.089702894599   119.24967754   207.73499209
 H      2   1   3     1.092125036983   119.19624086   151.89431399
 H      4   3   2     1.088027040644   118.85664875   359.15881280
 H      5   4   3     1.087538597184   120.28354812   181.50937879
 H      7   6   5     1.089288841171   119.14268001     1.51556039
 H      9   8   7     1.086620959019   119.06644888   178.24316127
 H     11  10   9     1.086182750770   117.66678358     1.41287598
 H     12  11  10     1.087633744439   120.55419303   178.95500705
 H     14  13  12     1.086011055182   120.15984135   354.77243268
 O      2   1   3     1.434146142888    58.99679680   253.30362058
 O      8   7   6     1.367323984435   122.97760507   179.80632224
 H     27   8   7     0.970356607897   108.81838175     0.39017511
 C     24  12  11     8.262299307119   162.81091355     6.05477178
 C     29  24  12     1.530623523569    51.97286496   295.90938698
 C     30  29  24     1.544014108012   115.32697065   236.83486660
 C     31  30  29     1.556140695924   113.83671033    69.93426995
 C     32  31  30     1.544040409462   109.86695879    30.24297245
 C     33  32  31     1.523612798160   113.11999929    23.65366328
 O     34  33  32     1.419427164191   113.20533123   301.77313592
 O     34  33  32     1.419794739632   107.41158900    65.79040936
 C     36  34  33     1.433901683463   115.37710151   165.97285495
 C     37  36  34     1.538855005974   108.81953057   104.77879308
 C     38  37  36     1.527610270669   113.83727730   152.83469426
 C     39  38  37     1.530226055367   108.91684844   300.52172244
 C     40  39  38     1.512474260384   111.71423164    53.54554011
 C     41  40  39     1.388009634796   121.87615597   336.24098699
 C     42  41  40     1.428340689656   119.88964699   175.51654864
 C     43  42  41     1.407369172879   120.56860565     4.00236253
 C     44  43  42     1.424179032692   119.12889715   358.71419644
 C     45  44  43     1.405462724234   119.98207528   358.53105367
 O     46  45  44     1.341628880609   122.51729885   181.31818324
 C     45  44  43     1.455994751319   120.35764245   179.76891186
 O     48  45  44     1.249420927049   121.62339238   179.55583344
 C     48  45  44     1.487794466580   118.70244388   359.65228525
 C     50  48  45     1.416842270126   121.28988564     1.35777962
 C     44  43  42     1.471101750574   119.58037513   179.13652635
 O     52  44  43     1.249947194801   119.88211751     0.12713616
 C     51  50  48     1.425700917985   118.00344568   178.99919554
 C     54  51  50     1.405246365255   119.60061351     0.90912352
 C     55  54  51     1.392732775523   120.83214763   359.41391604
 C     56  55  54     1.390202848163   120.47503865   359.91242635
 O     54  51  50     1.350236813152   118.20154061   181.09336741
 C     58  54  51     1.423028526147   119.43084551   182.86579544
 O     43  42  41     1.341110902856   117.32113327   185.42369985
 C     39  38  37     1.544302967762   111.82260572    66.36338575
 O     61  39  38     1.222714148090   121.55385269    14.34467632
 C     61  39  38     1.524639669157   119.73468883   188.55793611
 O     63  61  39     1.406539360423   110.62222755   188.85069775
 O     39  38  37     1.436081262231   111.42743153   183.71354855
 N     32  31  30     1.464953895531   116.06694834   265.40557204
 O     31  30  29     1.427762180075   111.47744949   307.48324843
 H     29  24  12     1.094797508131   162.21807743   289.27718446
 H     29  24  12     1.094597447053    80.32508651   167.87885531
 H     29  24  12     1.095049244122    82.06944428    58.55436379
 H     30  29  24     1.100900498624   107.40378477   117.48531199
 H     31  30  29     1.098345416077   106.54035858   187.49223689
 H     32  31  30     1.095824557825   106.25237445   147.76204426
 H     33  32  31     1.096646069287   109.29580523   264.00150820
 H     33  32  31     1.093190012914   110.78105660   146.50177470
 H     34  33  32     1.094759426973   111.00894251   184.50864083
 H     37  36  34     1.096563610810   109.07867738   345.67648838
 H     38  37  36     1.095715924234   108.18135117    34.10622139
 H     38  37  36     1.094812659500   108.43565649   277.10726320
 H     40  39  38     1.098657071930   107.18160266   292.14063189
 H     40  39  38     1.093305348550   111.55386204   177.08525727
 H     47  46  45     0.999218246896   106.16255308     0.00000000
 H     55  54  51     1.083153664606   119.98824476   179.73208043
 H     56  55  54     1.086641003878   119.33936309   180.13680678
 H     57  56  55     1.083631691233   121.86788146   180.48570202
 H     59  58  54     1.097374316334   111.49804276    59.63588904
 H     59  58  54     1.090972105533   105.30036231   178.17917092
 H     59  58  54     1.097555482151   111.62692168   296.77167903
 H     60  43  42     1.003304752776   105.57185465   181.51018622
 H     63  61  39     1.100829232398   108.89056699    67.62692626
 H     63  61  39     1.099924312760   108.64617283   311.31058267
 H     64  63  61     0.978138907719   105.41785472     2.16332963
 H     65  39  38     0.972372020209   107.56189482   310.45168445
 H     66  32  31     1.019088252193   108.34766468   307.94505321
 H     66  32  31     1.019442092389   109.84707734    62.50682465
 H     67  31  30     0.969846054212   107.97002730   290.38091580

---------------------------
INTERNAL COORDINATES (A.U.)
---------------------------
 C      0   0   0     0.000000000000     0.00000000     0.00000000
 C      1   0   0     2.836438696758     0.00000000     0.00000000
 C      2   1   0     2.792318440378   118.34407616     0.00000000
 C      3   2   1     2.669916533697   120.50012137   172.61701964
 C      4   3   2     2.603673465440   121.22348596   177.53692110
 C      5   4   3     2.684663116610   120.71732752     1.30686506
 C      6   5   4     2.681558732668   122.18642611   179.60696556
 C      7   6   5     2.613642350074   120.44279069   182.11304375
 C      8   7   6     2.669653208406   120.75838194     0.39365516
 C      9   8   7     2.623063781422   120.34564998   359.19686786
 C     10   9   8     2.743493676353   121.43385591   178.62282398
 C     11  10   9     2.556546161199   121.55424842   182.34608320
 C     12  11  10     2.745123044654   121.95350336   358.34595779
 C     13  12  11     2.580407880849   121.30030316   176.28426636
 C      3   2   1     2.651558292766   119.75447179   352.74017991
 C     15   3   2     2.692500733298   119.56224097   181.53613682
 H      1   2   3     2.059240038134   119.24967754   207.73499209
 H      2   1   3     2.063817223897   119.19624086   151.89431399
 H      4   3   2     2.056073133117   118.85664875   359.15881280
 H      5   4   3     2.055150108746   120.28354812   181.50937879
 H      7   6   5     2.058457590550   119.14268001     1.51556039
 H      9   8   7     2.053416023925   119.06644888   178.24316127
 H     11  10   9     2.052587930345   117.66678358     1.41287598
 H     12  11  10     2.055329911002   120.55419303   178.95500705
 H     14  13  12     2.052263472704   120.15984135   354.77243268
 O      2   1   3     2.710143446077    58.99679680   253.30362058
 O      8   7   6     2.583867866923   122.97760507   179.80632224
 H     27   8   7     1.833708241165   108.81838175     0.39017511
 C     24  12  11    15.613482926943   162.81091355     6.05477178
 C     29  24  12     2.892459273682    51.97286496   295.90938698
 C     30  29  24     2.917763811054   115.32697065   236.83486660
 C     31  30  29     2.940679741146   113.83671033    69.93426995
 C     32  31  30     2.917813513592   109.86695879    30.24297245
 C     33  32  31     2.879210922660   113.11999929    23.65366328
 O     34  33  32     2.682328607369   113.20533123   301.77313592
 O     34  33  32     2.683023224286   107.41158900    65.79040936
 C     36  34  33     2.709681484714   115.37710151   165.97285495
 C     37  36  34     2.908014521105   108.81953057   104.77879308
 C     38  37  36     2.886765050930   113.83727730   152.83469426
 C     39  38  37     2.891708167633   108.91684844   300.52172244
 C     40  39  38     2.858162136730   111.71423164    53.54554011
 C     41  40  39     2.622958081008   121.87615597   336.24098699
 C     42  41  40     2.699172729386   119.88964699   175.51654864
 C     43  42  41     2.659542306065   120.56860565     4.00236253
 C     44  43  42     2.691308337462   119.12889715   358.71419644
 C     45  44  43     2.655939640238   119.98207528   358.53105367
 O     46  45  44     2.535311157710   122.51729885   181.31818324
 C     45  44  43     2.751431332419   120.35764245   179.76891186
 O     48  45  44     2.361063378113   121.62339238   179.55583344
 C     48  45  44     2.811524085400   118.70244388   359.65228525
 C     50  48  45     2.677443865501   121.28988564     1.35777962
 C     44  43  42     2.779979423716   119.58037513   179.13652635
 O     52  44  43     2.362057880036   119.88211751     0.12713616
 C     51  50  48     2.694184283872   118.00344568   178.99919554
 C     54  51  50     2.655530781021   119.60061351     0.90912352
 C     55  54  51     2.631883523474   120.83214763   359.41391604
 C     56  55  54     2.627102653626   120.47503865   359.91242635
 O     54  51  50     2.551577792796   118.20154061   181.09336741
 C     58  54  51     2.689134195175   119.43084551   182.86579544
 O     43  42  41     2.534332321614   117.32113327   185.42369985
 C     39  38  37     2.918309676872   111.82260572    66.36338575
 O     61  39  38     2.310594879961   121.55385269    14.34467632
 C     61  39  38     2.881151427619   119.73468883   188.55793611
 O     63  61  39     2.657974187780   110.62222755   188.85069775
 O     39  38  37     2.713800291673   111.42743153   183.71354855
 N     32  31  30     2.768361661375   116.06694834   265.40557204
 O     31  30  29     2.698079504711   111.47744949   307.48324843
 H     29  24  12     2.068867462467   162.21807743   289.27718446
 H     29  24  12     2.068489401819    80.32508651   167.87885531
 H     29  24  12     2.069343174548    82.06944428    58.55436379
 H     30  29  24     2.080400443096   107.40378477   117.48531199
 H     31  30  29     2.075572036834   106.54035858   187.49223689
 H     32  31  30     2.070808305114   106.25237445   147.76204426
 H     33  32  31     2.072360736795   109.29580523   264.00150820
 H     33  32  31     2.065829736744   110.78105660   146.50177470
 H     34  33  32     2.068795499508   111.00894251   184.50864083
 H     37  36  34     2.072204912855   109.07867738   345.67648838
 H     38  37  36     2.070603017379   108.18135117    34.10622139
 H     38  37  36     2.068896094404   108.43565649   277.10726320
 H     40  39  38     2.076160981043   107.18160266   292.14063189
 H     40  39  38     2.066047689510   111.55386204   177.08525727
 H     47  46  45     1.888248834651   106.16255308     0.00000000
 H     55  54  51     2.046863787059   119.98824476   179.73208043
 H     56  55  54     2.053453903218   119.33936309   180.13680678
 H     57  56  55     2.047767126469   121.86788146   180.48570202
 H     59  58  54     2.073736924271   111.49804276    59.63588904
 H     59  58  54     2.061638499204   105.30036231   178.17917092
 H     59  58  54     2.074079278048   111.62692168   296.77167903
 H     60  43  42     1.895971211608   105.57185465   181.51018622
 H     63  61  39     2.080265769448   108.89056699    67.62692626
 H     63  61  39     2.078555719159   108.64617283   311.31058267
 H     64  63  61     1.848414656523   105.41785472     2.16332963
 H     65  39  38     1.837516818483   107.56189482   310.45168445
 H     66  32  31     1.925797702942   108.34766468   307.94505321
 H     66  32  31     1.926466364006   109.84707734    62.50682465
 H     67  31  30     1.832743434524   107.97002730   290.38091580

---------------------
BASIS SET INFORMATION
---------------------
There are 4 groups of distinct atoms

 Group   1 Type C   : 10s4p1d contracted to 3s2p1d pattern {631/31/1}
 Group   2 Type H   : 4s contracted to 2s pattern {31}
 Group   3 Type O   : 10s4p1d contracted to 3s2p1d pattern {631/31/1}
 Group   4 Type N   : 10s4p1d contracted to 3s2p1d pattern {631/31/1}

Atom   0C    basis set group =>   1
Atom   1C    basis set group =>   1
Atom   2C    basis set group =>   1
Atom   3C    basis set group =>   1
Atom   4C    basis set group =>   1
Atom   5C    basis set group =>   1
Atom   6C    basis set group =>   1
Atom   7C    basis set group =>   1
Atom   8C    basis set group =>   1
Atom   9C    basis set group =>   1
Atom  10C    basis set group =>   1
Atom  11C    basis set group =>   1
Atom  12C    basis set group =>   1
Atom  13C    basis set group =>   1
Atom  14C    basis set group =>   1
Atom  15C    basis set group =>   1
Atom  16H    basis set group =>   2
Atom  17H    basis set group =>   2
Atom  18H    basis set group =>   2
Atom  19H    basis set group =>   2
Atom  20H    basis set group =>   2
Atom  21H    basis set group =>   2
Atom  22H    basis set group =>   2
Atom  23H    basis set group =>   2
Atom  24H    basis set group =>   2
Atom  25O    basis set group =>   3
Atom  26O    basis set group =>   3
Atom  27H    basis set group =>   2
Atom  28C    basis set group =>   1
Atom  29C    basis set group =>   1
Atom  30C    basis set group =>   1
Atom  31C    basis set group =>   1
Atom  32C    basis set group =>   1
Atom  33C    basis set group =>   1
Atom  34O    basis set group =>   3
Atom  35O    basis set group =>   3
Atom  36C    basis set group =>   1
Atom  37C    basis set group =>   1
Atom  38C    basis set group =>   1
Atom  39C    basis set group =>   1
Atom  40C    basis set group =>   1
Atom  41C    basis set group =>   1
Atom  42C    basis set group =>   1
Atom  43C    basis set group =>   1
Atom  44C    basis set group =>   1
Atom  45C    basis set group =>   1
Atom  46O    basis set group =>   3
Atom  47C    basis set group =>   1
Atom  48O    basis set group =>   3
Atom  49C    basis set group =>   1
Atom  50C    basis set group =>   1
Atom  51C    basis set group =>   1
Atom  52O    basis set group =>   3
Atom  53C    basis set group =>   1
Atom  54C    basis set group =>   1
Atom  55C    basis set group =>   1
Atom  56C    basis set group =>   1
Atom  57O    basis set group =>   3
Atom  58C    basis set group =>   1
Atom  59O    basis set group =>   3
Atom  60C    basis set group =>   1
Atom  61O    basis set group =>   3
Atom  62C    basis set group =>   1
Atom  63O    basis set group =>   3
Atom  64O    basis set group =>   3
Atom  65N    basis set group =>   4
Atom  66O    basis set group =>   3
Atom  67H    basis set group =>   2
Atom  68H    basis set group =>   2
Atom  69H    basis set group =>   2
Atom  70H    basis set group =>   2
Atom  71H    basis set group =>   2
Atom  72H    basis set group =>   2
Atom  73H    basis set group =>   2
Atom  74H    basis set group =>   2
Atom  75H    basis set group =>   2
Atom  76H    basis set group =>   2
Atom  77H    basis set group =>   2
Atom  78H    basis set group =>   2
Atom  79H    basis set group =>   2
Atom  80H    basis set group =>   2
Atom  81H    basis set group =>   2
Atom  82H    basis set group =>   2
Atom  83H    basis set group =>   2
Atom  84H    basis set group =>   2
Atom  85H    basis set group =>   2
Atom  86H    basis set group =>   2
Atom  87H    basis set group =>   2
Atom  88H    basis set group =>   2
Atom  89H    basis set group =>   2
Atom  90H    basis set group =>   2
Atom  91H    basis set group =>   2
Atom  92H    basis set group =>   2
Atom  93H    basis set group =>   2
Atom  94H    basis set group =>   2
Atom  95H    basis set group =>   2
---------------------------------
AUXILIARY/J BASIS SET INFORMATION
---------------------------------
There are 4 groups of distinct atoms

 Group   1 Type C   : 12s5p4d2f1g contracted to 6s4p3d1f1g pattern {711111/2111/211/2/1}
 Group   2 Type H   : 5s2p1d contracted to 3s1p1d pattern {311/2/1}
 Group   3 Type O   : 12s5p4d2f1g contracted to 6s4p3d1f1g pattern {711111/2111/211/2/1}
 Group   4 Type N   : 12s5p4d2f1g contracted to 6s4p3d1f1g pattern {711111/2111/211/2/1}

Atom   0C    basis set group =>   1
Atom   1C    basis set group =>   1
Atom   2C    basis set group =>   1
Atom   3C    basis set group =>   1
Atom   4C    basis set group =>   1
Atom   5C    basis set group =>   1
Atom   6C    basis set group =>   1
Atom   7C    basis set group =>   1
Atom   8C    basis set group =>   1
Atom   9C    basis set group =>   1
Atom  10C    basis set group =>   1
Atom  11C    basis set group =>   1
Atom  12C    basis set group =>   1
Atom  13C    basis set group =>   1
Atom  14C    basis set group =>   1
Atom  15C    basis set group =>   1
Atom  16H    basis set group =>   2
Atom  17H    basis set group =>   2
Atom  18H    basis set group =>   2
Atom  19H    basis set group =>   2
Atom  20H    basis set group =>   2
Atom  21H    basis set group =>   2
Atom  22H    basis set group =>   2
Atom  23H    basis set group =>   2
Atom  24H    basis set group =>   2
Atom  25O    basis set group =>   3
Atom  26O    basis set group =>   3
Atom  27H    basis set group =>   2
Atom  28C    basis set group =>   1
Atom  29C    basis set group =>   1
Atom  30C    basis set group =>   1
Atom  31C    basis set group =>   1
Atom  32C    basis set group =>   1
Atom  33C    basis set group =>   1
Atom  34O    basis set group =>   3
Atom  35O    basis set group =>   3
Atom  36C    basis set group =>   1
Atom  37C    basis set group =>   1
Atom  38C    basis set group =>   1
Atom  39C    basis set group =>   1
Atom  40C    basis set group =>   1
Atom  41C    basis set group =>   1
Atom  42C    basis set group =>   1
Atom  43C    basis set group =>   1
Atom  44C    basis set group =>   1
Atom  45C    basis set group =>   1
Atom  46O    basis set group =>   3
Atom  47C    basis set group =>   1
Atom  48O    basis set group =>   3
Atom  49C    basis set group =>   1
Atom  50C    basis set group =>   1
Atom  51C    basis set group =>   1
Atom  52O    basis set group =>   3
Atom  53C    basis set group =>   1
Atom  54C    basis set group =>   1
Atom  55C    basis set group =>   1
Atom  56C    basis set group =>   1
Atom  57O    basis set group =>   3
Atom  58C    basis set group =>   1
Atom  59O    basis set group =>   3
Atom  60C    basis set group =>   1
Atom  61O    basis set group =>   3
Atom  62C    basis set group =>   1
Atom  63O    basis set group =>   3
Atom  64O    basis set group =>   3
Atom  65N    basis set group =>   4
Atom  66O    basis set group =>   3
Atom  67H    basis set group =>   2
Atom  68H    basis set group =>   2
Atom  69H    basis set group =>   2
Atom  70H    basis set group =>   2
Atom  71H    basis set group =>   2
Atom  72H    basis set group =>   2
Atom  73H    basis set group =>   2
Atom  74H    basis set group =>   2
Atom  75H    basis set group =>   2
Atom  76H    basis set group =>   2
Atom  77H    basis set group =>   2
Atom  78H    basis set group =>   2
Atom  79H    basis set group =>   2
Atom  80H    basis set group =>   2
Atom  81H    basis set group =>   2
Atom  82H    basis set group =>   2
Atom  83H    basis set group =>   2
Atom  84H    basis set group =>   2
Atom  85H    basis set group =>   2
Atom  86H    basis set group =>   2
Atom  87H    basis set group =>   2
Atom  88H    basis set group =>   2
Atom  89H    basis set group =>   2
Atom  90H    basis set group =>   2
Atom  91H    basis set group =>   2
Atom  92H    basis set group =>   2
Atom  93H    basis set group =>   2
Atom  94H    basis set group =>   2
Atom  95H    basis set group =>   2
------------------------------------------------------------------------------
                             ORCA STARTUP CALCULATIONS
                           -- RI-GTO INTEGRALS CHOSEN --
------------------------------------------------------------------------------
------------------------------------------------------------------------------
                   ___                                                        
                  /   \      - P O W E R E D   B Y -                         
                 /     \                                                     
                 |  |  |   _    _      __       _____    __    __             
                 |  |  |  | |  | |    /  \     |  _  \  |  |  /  |          
                  \  \/   | |  | |   /    \    | | | |  |  | /  /          
                 / \  \   | |__| |  /  /\  \   | |_| |  |  |/  /          
                |  |  |   |  __  | /  /__\  \  |    /   |      \           
                |  |  |   | |  | | |   __   |  |    \   |  |\   \          
                \     /   | |  | | |  |  |  |  | |\  \  |  | \   \       
                 \___/    |_|  |_| |__|  |__|  |_| \__\ |__|  \__/        
                                                                              
                      - O R C A' S   B I G   F R I E N D -                    
                                      &                                       
                       - I N T E G R A L  F E E D E R -                       
                                                                              
 v1 FN, 2020, v2 2021, v3 2022-2024                                           
------------------------------------------------------------------------------


----------------------
SHARK INTEGRAL PACKAGE
----------------------

Number of atoms                             ...     96
Number of basis functions                   ...    876
Number of shells                            ...    420
Maximum angular momentum                    ...      2
Integral batch strategy                     ... SHARK/LIBINT Hybrid
RI-J (if used) integral strategy            ... SPLIT-RIJ (Revised 2003 algorithm where possible)
Printlevel                                  ...      1
Contraction scheme used                     ... SEGMENTED contraction
Prescreening option                         ... SCHWARTZ
   Thresh                                   ... 1.000e-10
   Tcut                                     ... 1.000e-11
   Tpresel                                  ... 1.000e-11 
Coulomb Range Separation                    ... NOT USED
Exchange Range Separation                   ... NOT USED
Multipole approximations                    ... NOT USED
Finite Nucleus Model                        ... NOT USED
CABS basis                                  ... NOT available
Auxiliary Coulomb fitting basis             ... AVAILABLE
   # of basis functions in Aux-J            ...   3222
   # of shells in Aux-J                     ...   1050
   Maximum angular momentum in Aux-J        ...      4
Auxiliary J/K fitting basis                 ... NOT available
Auxiliary Correlation fitting basis         ... NOT available
Auxiliary 'external' fitting basis          ... NOT available

Checking pre-screening integrals            ... done (  0.0 sec) Dimension = 420
   => SHARK Basis and OBASIS are compatible. Storing Pre-screening
Shell pair information
Shell pair cut-off parameter TPreSel        ...   1.0e-11
Total number of shell pairs                 ...     88410
Shell pairs after pre-screening             ...     38134
Total number of primitive shell pairs       ...    512880
Primitive shell pairs kept                  ...    105885
          la=0 lb=0:  12245 shell pairs
          la=1 lb=0:  13737 shell pairs
          la=1 lb=1:   3883 shell pairs
          la=2 lb=0:   4877 shell pairs
          la=2 lb=1:   2920 shell pairs
          la=2 lb=2:    472 shell pairs

Checking whether 4 symmetric matrices of dimension 876 fit in memory
:Max Core in MB      =    800.00
 MB in use           =     43.04
 MB left             =    756.96
 MB needed           =     11.72
 Data fit in memory  = YES
Calculating RI/J V-Matrix + Cholesky decomp.... done (  1.8 sec)
Calculating Nuclear repulsion               ... done (  0.0 sec) ENN=   8266.999661422149 Eh

Diagonalization of the overlap matrix:
Smallest eigenvalue                        ... 1.808e-04
Time for diagonalization                   ...    0.145 sec
Threshold for overlap eigenvalues          ... 1.000e-07
Number of eigenvalues below threshold      ... 0
Time for construction of square roots      ...    0.139 sec
Total time needed                          ...    0.290 sec

-------------------
DFT GRID GENERATION
-------------------

General Integration Accuracy     IntAcc      ... 4.388
Radial Grid Type                 RadialGrid  ... OptM3 with GC (2021)
Angular Grid (max. ang.)         AngularGrid ... 4 (Lebedev-302)
Angular grid pruning method      GridPruning ... 4 (adaptive)
Weight generation scheme         WeightScheme... mBecke (2022)
Basis function cutoff            BFCut       ... 1.0000e-10
Integration weight cutoff        WCut        ... 1.0000e-14
Partially contracted basis set               ... off
Rotationally invariant grid construction     ... off
Angular grids for H and He will be reduced by one unit

Total number of grid points                  ...   461288
Total number of batches                      ...     7259
Average number of points per batch           ...       63
Average number of grid points per atom       ...     4805

--------------------
COSX GRID GENERATION
--------------------

GRIDX 1
-------
General Integration Accuracy     IntAcc      ... 3.816
Radial Grid Type                 RadialGrid  ... OptM3 with GC (2021)
Angular Grid (max. ang.)         AngularGrid ... 1 (Lebedev-50)
Angular grid pruning method      GridPruning ... 4 (adaptive)
Weight generation scheme         WeightScheme... mBecke (2022)
Basis function cutoff            BFCut       ... 1.0000e-10
Integration weight cutoff        WCut        ... 1.0000e-14
Partially contracted basis set               ... on
Rotationally invariant grid construction     ... off
Angular grids for H and He will be reduced by one unit

Total number of grid points                  ...    58391
Total number of batches                      ...      508
Average number of points per batch           ...      114
Average number of grid points per atom       ...      608
UseSFitting                                  ... on

GRIDX 2
-------
General Integration Accuracy     IntAcc      ... 4.020
Radial Grid Type                 RadialGrid  ... OptM3 with GC (2021)
Angular Grid (max. ang.)         AngularGrid ... 2 (Lebedev-110)
Angular grid pruning method      GridPruning ... 4 (adaptive)
Weight generation scheme         WeightScheme... mBecke (2022)
Basis function cutoff            BFCut       ... 1.0000e-10
Integration weight cutoff        WCut        ... 1.0000e-14
Partially contracted basis set               ... on
Rotationally invariant grid construction     ... off
Angular grids for H and He will be reduced by one unit

Total number of grid points                  ...   125981
Total number of batches                      ...     1033
Average number of points per batch           ...      121
Average number of grid points per atom       ...     1312
UseSFitting                                  ... on

GRIDX 3
-------
General Integration Accuracy     IntAcc      ... 4.338
Radial Grid Type                 RadialGrid  ... OptM3 with GC (2021)
Angular Grid (max. ang.)         AngularGrid ... 3 (Lebedev-194)
Angular grid pruning method      GridPruning ... 4 (adaptive)
Weight generation scheme         WeightScheme... mBecke (2022)
Basis function cutoff            BFCut       ... 1.0000e-10
Integration weight cutoff        WCut        ... 1.0000e-14
Partially contracted basis set               ... on
Rotationally invariant grid construction     ... off
Angular grids for H and He will be reduced by one unit

Total number of grid points                  ...   274228
Total number of batches                      ...     2192
Average number of points per batch           ...      125
Average number of grid points per atom       ...     2857
UseSFitting                                  ... on
Grids setup in  28.6 sec
Initializing property integral containers    ... done (  0.0 sec)

SHARK setup successfully completed in  32.6 seconds

Maximum memory used throughout the entire STARTUP-calculation: 206.9 MB
-------------------------------------------------------------------------------
                                 ORCA GUESS
                   Start orbitals & Density for SCF / CASSCF
-------------------------------------------------------------------------------

------------
SCF SETTINGS
------------
Hamiltonian:
 Density Functional     Method          .... DFT(GTOs)
 Exchange Functional    Exchange        .... B88
   X-Alpha parameter    XAlpha          ....  0.666667
   Becke's b parameter  XBeta           ....  0.004200
 Correlation Functional Correlation     .... LYP
 LDA part of GGA corr.  LDAOpt          .... VWN-5
 Gradients option       PostSCFGGA      .... off
 Hybrid DFT is turned on
   Fraction HF Exchange ScalHFX         ....  0.200000
   Scaling of DF-GGA-X  ScalDFX         ....  0.720000
   Scaling of DF-GGA-C  ScalDFC         ....  0.810000
   Scaling of DF-LDA-C  ScalLDAC        ....  1.000000
   Perturbative correction              ....  0.000000
   NL short-range parameter             ....  4.800000
 RI-approximation to the Coulomb term is turned on
   Number of AuxJ basis functions       .... 3222
   RIJ-COSX (HFX calculated with COS-X)).... on


General Settings:
 Integral files         IntName         .... doxorubicin_on_go_D3
 Hartree-Fock type      HFTyp           .... RHF
 Total Charge           Charge          ....    0
 Multiplicity           Mult            ....    1
 Number of Electrons    NEL             ....  408
 Basis Dimension        Dim             ....  876
 Nuclear Repulsion      ENuc            ....   8266.9996614221 Eh

Convergence Acceleration:
 AO-DIIS                CNVDIIS         .... on
   Start iteration      DIISMaxIt       ....    12
   Startup error        DIISStart       ....  0.200000
   # of expansion vecs  DIISMaxEq       ....     5
   Bias factor          DIISBfac        ....   1.050
   Max. coefficient     DIISMaxC        ....  10.000
 MO-DIIS                CNVKDIIS        .... off
 Trust-Rad. Augm. Hess. CNVTRAH         .... auto
   Auto Start mean grad. ratio tolernc. ....  1.125000
   Auto Start start iteration           ....    50
   Auto Start num. interpolation iter.  ....    10
   Max. Number of Micro iterations      ....    24
   Max. Number of Macro iterations      .... Maxiter - #DIIS iter
   Number of Davidson start vectors     ....     2
   Converg. threshold    (grad. norm)   ....   5.000e-05
   Grad. Scal. Fac. for Micro threshold ....   0.100
   Minimum threshold for Micro iter.    ....   1.000e-02
   NR start threshold (gradient norm)   ....   1.000e-04
   Initial trust radius                 ....   0.400
   Minimum AH scaling param. (alpha)    ....   1.000
   Maximum AH scaling param. (alpha)    .... 1000.000
   Quad. conv. algorithm                .... NR
   White noise on init. David. guess    .... on
   Maximum white noise                  ....   0.010
   Pseudo random numbers                .... off
   Inactive MOs                         .... canonical
   Orbital update algorithm             .... Taylor
   Preconditioner                       .... Diag
   Full preconditioner red. dimension   ....   250
 SOSCF                 CNVSOSCF           .... on
   Start iteration     SOSCFMaxIt         ....   150
   Startup grad/error  SOSCFStart         ....  0.003300
   Hessian update      SOSCFHessUp        .... L-BFGS
   Autom. constraints  SOSCFAutoConstrain .... off
 Level Shifting         CNVShift        .... on
   Level shift para.    LevelShift      ....    0.2500
   Turn off err/grad.   ShiftErr        ....    0.0010
 Zerner damping         CNVZerner       .... off
 Static damping         CNVDamp         .... on
   Fraction old density DampFac         ....    0.7000
   Max. Damping (<1)    DampMax         ....    0.9800
   Min. Damping (>=0)   DampMin         ....    0.0000
   Turn off err/grad.   DampErr         ....    0.1000

SCF Procedure:
 Maximum # iterations   MaxIter         ....   125
 SCF integral mode      SCFMode         .... Direct
   Integral package                     .... SHARK and LIBINT hybrid scheme
 Reset frequency        DirectResetFreq ....    20
 Integral Threshold     Thresh          ....  1.000e-10 Eh
 Primitive CutOff       TCut            ....  1.000e-11 Eh

Convergence Tolerance:
 Convergence Check Mode ConvCheckMode   .... Total+1el-Energy
 Convergence forced     ConvForced      .... 0
 Energy Change          TolE            ....  1.000e-06 Eh
 1-El. energy change                    ....  1.000e-03 Eh
 Orbital Gradient       TolG            ....  5.000e-05
 Orbital Rotation angle TolX            ....  5.000e-05
 DIIS Error             TolErr          ....  1.000e-06

------------------------------
INITIAL GUESS: MODEL POTENTIAL
------------------------------
Loading Hartree-Fock densities                     ... done
Calculating cut-offs                               ... done
Initializing the effective Hamiltonian             ... done
Setting up the integral package (SHARK)            ... done
Starting the Coulomb interaction                   ... done (   9.3 sec)
Making the grid                                    ... done (   4.3 sec)
Mapping shells                                     ... done
Starting the XC term evaluation                    ... done (   3.5 sec)
  promolecular density results
     # of electrons  =    407.970232378
     EX              =   -346.014217829
     EC              =    -14.144634119
     EX+EC           =   -360.158851947
Transforming the Hamiltonian                       ... done (   0.1 sec)
Diagonalizing the Hamiltonian                      ... done (   0.1 sec)
Back transforming the eigenvectors                 ... done (   0.0 sec)
Now organizing SCF variables                       ... done
                      ------------------
                      INITIAL GUESS DONE (  17.4 sec)
                      ------------------
             **** ENERGY FILE WAS UPDATED (doxorubicin_on_go_D3.en.tmp) ****
Finished Guess after  17.8 sec
Maximum memory used throughout the entire GUESS-calculation: 84.8 MB

-------------------------------------------------------------------------------------------
                                      ORCA LEAN-SCF
                              memory conserving SCF solver
-------------------------------------------------------------------------------------------

----------------------------------------D-I-I-S--------------------------------------------
Iteration    Energy (Eh)           Delta-E    RMSDP     MaxDP     DIISErr   Damp  Time(sec)
-------------------------------------------------------------------------------------------
               ***  Starting incremental Fock matrix formation  ***
    1    -2691.8299969212312135     0.00e+00  1.64e-03  8.25e-02  2.50e-01  0.700 151.0
Warning: op=0 Small HOMO/LUMO gap (   0.053) - skipping pre-diagonalization
         Will do a full diagonalization
    2    -2692.4150126178537903    -5.85e-01  1.09e-03  5.00e-02  1.15e-01  0.700  64.5
                               ***Turning on AO-DIIS***
    3    -2692.6492866784647049    -2.34e-01  4.95e-04  1.68e-02  3.57e-02  0.700  61.8
    4    -2692.7900272214246797    -1.41e-01  9.31e-04  3.62e-02  1.81e-02  0.000  56.0
    5    -2693.0975124782944476    -3.07e-01  1.44e-04  8.58e-03  4.79e-03  0.000  59.5
                              *** Initializing SOSCF ***
---------------------------------------S-O-S-C-F--------------------------------------
Iteration    Energy (Eh)           Delta-E    RMSDP     MaxDP     MaxGrad    Time(sec)
--------------------------------------------------------------------------------------
    6    -2693.0989579181677982    -1.45e-03  4.29e-05  2.27e-03  1.96e-03    49.7
               *** Restarting incremental Fock matrix formation ***
    7    -2693.0987495554691122     2.08e-04  3.23e-05  2.12e-03  4.78e-04   160.3
    8    -2693.0987292000772868     2.04e-05  1.78e-05  1.56e-03  7.25e-04    79.4
    9    -2693.0987696025458717    -4.04e-05  6.13e-06  3.93e-04  7.17e-05    63.1
   10    -2693.0987686142125312     9.88e-07  3.49e-06  2.22e-04  1.07e-04    59.9
                 **** Energy Check signals convergence ****

               *****************************************************
               *                     SUCCESS                       *
               *           SCF CONVERGED AFTER  10 CYCLES          *
               *****************************************************

Recomputing exchange energy using gridx3       ... done (  270.477 sec)
Old exchange energy                            :    -70.161469132 Eh
New exchange energy                            :    -70.161524380 Eh
Exchange energy change after final integration :     -0.000055249 Eh
Total energy after final integration           :  -2693.098825421 Eh
             **** ENERGY FILE WAS UPDATED (doxorubicin_on_go_D3.en.tmp) ****

----------------
TOTAL SCF ENERGY
----------------

Total Energy       :      -2693.09882542063724 Eh          -73282.94467 eV

Components:
Nuclear Repulsion  :       8266.99966142214907 Eh          224956.49735 eV
Electronic Energy  :     -10960.09843159428601 Eh         -298239.44052 eV
One Electron Energy:     -20147.33578132449475 Eh         -548236.87843 eV
Two Electron Energy:       9187.23734973020873 Eh          249997.43791 eV

Virial components:
Potential Energy   :      -5370.78684362027889 Eh         -146146.53996 eV
Kinetic Energy     :       2677.68801819964119 Eh           72863.59529 eV
Virial Ratio       :          2.00575526615358

DFT components:
N(Alpha)           :      204.000268960465 electrons
N(Beta)            :      204.000268960465 electrons
N(Total)           :      408.000537920930 electrons
E(X)               :     -278.845126877172 Eh       
E(C)               :      -16.605555910088 Eh       
E(XC)              :     -295.450682787259 Eh       

---------------
SCF CONVERGENCE
---------------

  Last Energy change         ...   -9.8833e-07  Tolerance :   1.0000e-06
  Last MAX-Density change    ...    2.2192e-04  Tolerance :   1.0000e-05
  Last RMS-Density change    ...    3.4883e-06  Tolerance :   1.0000e-06
  Last DIIS Error            ...    1.9641e-03  Tolerance :   1.0000e-06
  Last Orbital Gradient      ...    1.0684e-04  Tolerance :   5.0000e-05
  Last Orbital Rotation      ...    1.7490e-04  Tolerance :   5.0000e-05


----------------
ORBITAL ENERGIES
----------------

  NO   OCC          E(Eh)            E(eV) 
   0   2.0000     -19.192881      -522.2648 
   1   2.0000     -19.172511      -521.7105 
   2   2.0000     -19.168851      -521.6109 
   3   2.0000     -19.168804      -521.6097 
   4   2.0000     -19.166918      -521.5583 
   5   2.0000     -19.165066      -521.5080 
   6   2.0000     -19.151531      -521.1396 
   7   2.0000     -19.146876      -521.0130 
   8   2.0000     -19.145591      -520.9780 
   9   2.0000     -19.143559      -520.9227 
  10   2.0000     -19.140865      -520.8494 
  11   2.0000     -19.140379      -520.8362 
  12   2.0000     -19.139653      -520.8164 
  13   2.0000     -14.292932      -388.9305 
  14   2.0000     -10.289174      -279.9827 
  15   2.0000     -10.287422      -279.9350 
  16   2.0000     -10.286804      -279.9182 
  17   2.0000     -10.275914      -279.6218 
  18   2.0000     -10.268892      -279.4308 
  19   2.0000     -10.267547      -279.3942 
  20   2.0000     -10.266356      -279.3617 
  21   2.0000     -10.262308      -279.2516 
  22   2.0000     -10.247023      -278.8357 
  23   2.0000     -10.243495      -278.7397 
  24   2.0000     -10.238082      -278.5924 
  25   2.0000     -10.237443      -278.5750 
  26   2.0000     -10.228874      -278.3418 
  27   2.0000     -10.228811      -278.3401 
  28   2.0000     -10.227303      -278.2991 
  29   2.0000     -10.223159      -278.1863 
  30   2.0000     -10.217224      -278.0248 
  31   2.0000     -10.216705      -278.0107 
  32   2.0000     -10.216126      -277.9949 
  33   2.0000     -10.211879      -277.8794 
  34   2.0000     -10.211329      -277.8644 
  35   2.0000     -10.207263      -277.7537 
  36   2.0000     -10.206359      -277.7291 
  37   2.0000     -10.206010      -277.7196 
  38   2.0000     -10.201138      -277.5871 
  39   2.0000     -10.198137      -277.5054 
  40   2.0000     -10.197774      -277.4955 
  41   2.0000     -10.187467      -277.2151 
  42   2.0000     -10.186561      -277.1904 
  43   2.0000     -10.185484      -277.1611 
  44   2.0000     -10.184970      -277.1471 
  45   2.0000     -10.184933      -277.1461 
  46   2.0000     -10.181327      -277.0480 
  47   2.0000     -10.180319      -277.0206 
  48   2.0000     -10.178755      -276.9780 
  49   2.0000     -10.176689      -276.9218 
  50   2.0000     -10.175304      -276.8841 
  51   2.0000     -10.174129      -276.8521 
  52   2.0000     -10.172732      -276.8141 
  53   2.0000     -10.172286      -276.8020 
  54   2.0000     -10.170049      -276.7411 
  55   2.0000     -10.168420      -276.6968 
  56   2.0000     -10.164583      -276.5924 
  57   2.0000      -1.087715       -29.5982 
  58   2.0000      -1.076807       -29.3014 
  59   2.0000      -1.075591       -29.2683 
  60   2.0000      -1.072820       -29.1929 
  61   2.0000      -1.057417       -28.7738 
  62   2.0000      -1.056232       -28.7415 
  63   2.0000      -1.051132       -28.6028 
  64   2.0000      -1.043073       -28.3835 
  65   2.0000      -1.041120       -28.3303 
  66   2.0000      -1.035783       -28.1851 
  67   2.0000      -1.023742       -27.8574 
  68   2.0000      -1.016655       -27.6646 
  69   2.0000      -1.000069       -27.2133 
  70   2.0000      -0.884902       -24.0794 
  71   2.0000      -0.874659       -23.8007 
  72   2.0000      -0.874203       -23.7883 
  73   2.0000      -0.872819       -23.7506 
  74   2.0000      -0.837349       -22.7854 
  75   2.0000      -0.822596       -22.3840 
  76   2.0000      -0.818010       -22.2592 
  77   2.0000      -0.796572       -21.6758 
  78   2.0000      -0.784381       -21.3441 
  79   2.0000      -0.779882       -21.2217 
  80   2.0000      -0.766156       -20.8482 
  81   2.0000      -0.765951       -20.8426 
  82   2.0000      -0.764475       -20.8024 
  83   2.0000      -0.753089       -20.4926 
  84   2.0000      -0.749211       -20.3871 
  85   2.0000      -0.740075       -20.1385 
  86   2.0000      -0.733400       -19.9568 
  87   2.0000      -0.725711       -19.7476 
  88   2.0000      -0.716708       -19.5026 
  89   2.0000      -0.707587       -19.2544 
  90   2.0000      -0.693169       -18.8621 
  91   2.0000      -0.683304       -18.5937 
  92   2.0000      -0.678209       -18.4550 
  93   2.0000      -0.670845       -18.2546 
  94   2.0000      -0.656442       -17.8627 
  95   2.0000      -0.637223       -17.3397 
  96   2.0000      -0.627220       -17.0675 
  97   2.0000      -0.626066       -17.0361 
  98   2.0000      -0.621220       -16.9043 
  99   2.0000      -0.619594       -16.8600 
 100   2.0000      -0.616735       -16.7822 
 101   2.0000      -0.612319       -16.6621 
 102   2.0000      -0.606216       -16.4960 
 103   2.0000      -0.594882       -16.1876 
 104   2.0000      -0.587357       -15.9828 
 105   2.0000      -0.571643       -15.5552 
 106   2.0000      -0.562697       -15.3118 
 107   2.0000      -0.561086       -15.2679 
 108   2.0000      -0.551346       -15.0029 
 109   2.0000      -0.546740       -14.8776 
 110   2.0000      -0.537475       -14.6254 
 111   2.0000      -0.528891       -14.3919 
 112   2.0000      -0.522901       -14.2288 
 113   2.0000      -0.521724       -14.1968 
 114   2.0000      -0.519559       -14.1379 
 115   2.0000      -0.517386       -14.0788 
 116   2.0000      -0.513677       -13.9779 
 117   2.0000      -0.507431       -13.8079 
 118   2.0000      -0.505709       -13.7610 
 119   2.0000      -0.504412       -13.7257 
 120   2.0000      -0.496883       -13.5209 
 121   2.0000      -0.494680       -13.4609 
 122   2.0000      -0.490393       -13.3443 
 123   2.0000      -0.487796       -13.2736 
 124   2.0000      -0.486760       -13.2454 
 125   2.0000      -0.482437       -13.1278 
 126   2.0000      -0.479584       -13.0502 
 127   2.0000      -0.478361       -13.0169 
 128   2.0000      -0.474466       -12.9109 
 129   2.0000      -0.470147       -12.7933 
 130   2.0000      -0.465640       -12.6707 
 131   2.0000      -0.463580       -12.6147 
 132   2.0000      -0.455562       -12.3965 
 133   2.0000      -0.452483       -12.3127 
 134   2.0000      -0.449453       -12.2303 
 135   2.0000      -0.446884       -12.1603 
 136   2.0000      -0.444645       -12.0994 
 137   2.0000      -0.438902       -11.9431 
 138   2.0000      -0.435764       -11.8577 
 139   2.0000      -0.433132       -11.7861 
 140   2.0000      -0.428457       -11.6589 
 141   2.0000      -0.427036       -11.6202 
 142   2.0000      -0.424902       -11.5622 
 143   2.0000      -0.423551       -11.5254 
 144   2.0000      -0.420654       -11.4466 
 145   2.0000      -0.418106       -11.3772 
 146   2.0000      -0.414137       -11.2693 
 147   2.0000      -0.410459       -11.1692 
 148   2.0000      -0.408606       -11.1187 
 149   2.0000      -0.404712       -11.0128 
 150   2.0000      -0.404280       -11.0010 
 151   2.0000      -0.402592       -10.9551 
 152   2.0000      -0.396077       -10.7778 
 153   2.0000      -0.395695       -10.7674 
 154   2.0000      -0.393145       -10.6980 
 155   2.0000      -0.392734       -10.6868 
 156   2.0000      -0.389169       -10.5898 
 157   2.0000      -0.385319       -10.4851 
 158   2.0000      -0.384860       -10.4726 
 159   2.0000      -0.382621       -10.4117 
 160   2.0000      -0.382213       -10.4005 
 161   2.0000      -0.379051       -10.3145 
 162   2.0000      -0.378586       -10.3018 
 163   2.0000      -0.376996       -10.2586 
 164   2.0000      -0.376562       -10.2468 
 165   2.0000      -0.375712       -10.2236 
 166   2.0000      -0.373981       -10.1766 
 167   2.0000      -0.372275       -10.1301 
 168   2.0000      -0.366840        -9.9822 
 169   2.0000      -0.363483        -9.8909 
 170   2.0000      -0.360055        -9.7976 
 171   2.0000      -0.354343        -9.6422 
 172   2.0000      -0.350014        -9.5244 
 173   2.0000      -0.348609        -9.4861 
 174   2.0000      -0.344208        -9.3664 
 175   2.0000      -0.337379        -9.1805 
 176   2.0000      -0.336380        -9.1534 
 177   2.0000      -0.333578        -9.0771 
 178   2.0000      -0.333180        -9.0663 
 179   2.0000      -0.332516        -9.0482 
 180   2.0000      -0.326182        -8.8759 
 181   2.0000      -0.325993        -8.8707 
 182   2.0000      -0.317496        -8.6395 
 183   2.0000      -0.312978        -8.5166 
 184   2.0000      -0.310239        -8.4420 
 185   2.0000      -0.295058        -8.0289 
 186   2.0000      -0.281080        -7.6486 
 187   2.0000      -0.279714        -7.6114 
 188   2.0000      -0.277532        -7.5520 
 189   2.0000      -0.276984        -7.5371 
 190   2.0000      -0.274134        -7.4596 
 191   2.0000      -0.268351        -7.3022 
 192   2.0000      -0.265235        -7.2174 
 193   2.0000      -0.262515        -7.1434 
 194   2.0000      -0.258948        -7.0463 
 195   2.0000      -0.257700        -7.0124 
 196   2.0000      -0.254077        -6.9138 
 197   2.0000      -0.246936        -6.7195 
 198   2.0000      -0.243573        -6.6280 
 199   2.0000      -0.242985        -6.6119 
 200   2.0000      -0.224077        -6.0975 
 201   2.0000      -0.214580        -5.8390 
 202   2.0000      -0.212676        -5.7872 
 203   2.0000      -0.178107        -4.8465 
 204   0.0000      -0.108185        -2.9439 
 205   0.0000      -0.059553        -1.6205 
 206   0.0000      -0.051802        -1.4096 
 207   0.0000      -0.040698        -1.1074 
 208   0.0000      -0.028520        -0.7761 
 209   0.0000       0.001423         0.0387 
 210   0.0000       0.003615         0.0984 
 211   0.0000       0.008703         0.2368 
 212   0.0000       0.029028         0.7899 
 213   0.0000       0.046038         1.2527 
 214   0.0000       0.055483         1.5098 
*Only the first 10 virtual orbitals were printed.

                    ********************************
                    * MULLIKEN POPULATION ANALYSIS *
                    ********************************

-----------------------
MULLIKEN ATOMIC CHARGES
-----------------------
   0 C :    0.046524
   1 C :   -0.033443
   2 C :    0.156441
   3 C :   -0.195288
   4 C :   -0.209204
   5 C :    0.167138
   6 C :   -0.307274
   7 C :    0.375983
   8 C :   -0.293467
   9 C :    0.144698
  10 C :   -0.192464
  11 C :   -0.202031
  12 C :    0.176565
  13 C :   -0.229314
  14 C :    0.000154
  15 C :   -0.003978
  16 H :    0.137420
  17 H :    0.126251
  18 H :    0.123240
  19 H :    0.122511
  20 H :    0.112242
  21 H :    0.180127
  22 H :    0.127926
  23 H :    0.139595
  24 H :    0.145520
  25 O :   -0.448180
  26 O :   -0.637917
  27 H :    0.409882
  28 C :   -0.456417
  29 C :    0.138469
  30 C :    0.104695
  31 C :    0.005831
  32 C :   -0.312738
  33 C :    0.355332
  34 O :   -0.513105
  35 O :   -0.508949
  36 C :    0.103889
  37 C :   -0.328334
  38 C :    0.247434
  39 C :   -0.375845
  40 C :    0.058596
  41 C :    0.043813
  42 C :    0.249101
  43 C :    0.006756
  44 C :    0.013578
  45 C :    0.227269
  46 O :   -0.634928
  47 C :    0.299220
  48 O :   -0.505065
  49 C :    0.043685
  50 C :    0.022598
  51 C :    0.331190
  52 O :   -0.504004
  53 C :    0.317701
  54 C :   -0.200314
  55 C :   -0.121147
  56 C :   -0.172146
  57 O :   -0.446628
  58 C :   -0.220995
  59 O :   -0.643897
  60 C :    0.361262
  61 O :   -0.425052
  62 C :   -0.071741
  63 O :   -0.632448
  64 O :   -0.650169
  65 N :   -0.716151
  66 O :   -0.648028
  67 H :    0.150708
  68 H :    0.142901
  69 H :    0.155074
  70 H :    0.108346
  71 H :    0.133768
  72 H :    0.146056
  73 H :    0.143946
  74 H :    0.169269
  75 H :    0.145618
  76 H :    0.171215
  77 H :    0.160756
  78 H :    0.160253
  79 H :    0.185291
  80 H :    0.188590
  81 H :    0.453597
  82 H :    0.147768
  83 H :    0.147646
  84 H :    0.168985
  85 H :    0.158589
  86 H :    0.185233
  87 H :    0.156559
  88 H :    0.456633
  89 H :    0.172986
  90 H :    0.177250
  91 H :    0.420080
  92 H :    0.406103
  93 H :    0.312668
  94 H :    0.293162
  95 H :    0.398977
Sum of atomic charges:    0.0000000

--------------------------------
MULLIKEN REDUCED ORBITAL CHARGES
--------------------------------
  0 C s       :     3.181874  s :     3.181874
      pz      :     0.979646  p :     2.702991
      px      :     0.795192
      py      :     0.928154
      dz2     :     0.014577  d :     0.068612
      dxz     :     0.013446
      dyz     :     0.010130
      dx2y2   :     0.013844
      dxy     :     0.016614

  1 C s       :     3.210353  s :     3.210353
      pz      :     0.944443  p :     2.753317
      px      :     0.994321
      py      :     0.814553
      dz2     :     0.015453  d :     0.069773
      dxz     :     0.011835
      dyz     :     0.015490
      dx2y2   :     0.011041
      dxy     :     0.015954

  2 C s       :     3.136627  s :     3.136627
      pz      :     0.783727  p :     2.666999
      px      :     0.936299
      py      :     0.946974
      dz2     :     0.010763  d :     0.039932
      dxz     :     0.010946
      dyz     :     0.006255
      dx2y2   :     0.006100
      dxy     :     0.005867

  3 C s       :     3.213476  s :     3.213476
      pz      :     0.966443  p :     2.944854
      px      :     0.972757
      py      :     1.005654
      dz2     :     0.009902  d :     0.036957
      dxz     :     0.009903
      dyz     :     0.008176
      dx2y2   :     0.003332
      dxy     :     0.005644

  4 C s       :     3.213391  s :     3.213391
      pz      :     0.968382  p :     2.959644
      px      :     0.992030
      py      :     0.999231
      dz2     :     0.008219  d :     0.036169
      dxz     :     0.010892
      dyz     :     0.007853
      dx2y2   :     0.003900
      dxy     :     0.005305

  5 C s       :     3.146887  s :     3.146887
      pz      :     0.845702  p :     2.643727
      px      :     0.877913
      py      :     0.920112
      dz2     :     0.010185  d :     0.042248
      dxz     :     0.011367
      dyz     :     0.008966
      dx2y2   :     0.005948
      dxy     :     0.005782

  6 C s       :     3.183467  s :     3.183467
      pz      :     1.045818  p :     3.089764
      px      :     0.983987
      py      :     1.059958
      dz2     :     0.007960  d :     0.034044
      dxz     :     0.009868
      dyz     :     0.006526
      dx2y2   :     0.004512
      dxy     :     0.005178

  7 C s       :     3.073257  s :     3.073257
      pz      :     0.680941  p :     2.479600
      px      :     0.869482
      py      :     0.929177
      dz2     :     0.019326  d :     0.071160
      dxz     :     0.020598
      dyz     :     0.015749
      dx2y2   :     0.008271
      dxy     :     0.007216

  8 C s       :     3.240612  s :     3.240612
      pz      :     1.003084  p :     3.018943
      px      :     1.002922
      py      :     1.012937
      dz2     :     0.008617  d :     0.033912
      dxz     :     0.009944
      dyz     :     0.006973
      dx2y2   :     0.003714
      dxy     :     0.004663

  9 C s       :     3.156392  s :     3.156392
      pz      :     0.829863  p :     2.656570
      px      :     0.891942
      py      :     0.934765
      dz2     :     0.010552  d :     0.042341
      dxz     :     0.011588
      dyz     :     0.008854
      dx2y2   :     0.005612
      dxy     :     0.005735

 10 C s       :     3.213608  s :     3.213608
      pz      :     0.965620  p :     2.942467
      px      :     0.983546
      py      :     0.993301
      dz2     :     0.009601  d :     0.036390
      dxz     :     0.010412
      dyz     :     0.008193
      dx2y2   :     0.003223
      dxy     :     0.004960

 11 C s       :     3.213289  s :     3.213289
      pz      :     0.989326  p :     2.952248
      px      :     0.977608
      py      :     0.985314
      dz2     :     0.008319  d :     0.036494
      dxz     :     0.011801
      dyz     :     0.007714
      dx2y2   :     0.003788
      dxy     :     0.004874

 12 C s       :     3.141670  s :     3.141670
      pz      :     0.836550  p :     2.639692
      px      :     0.868331
      py      :     0.934812
      dz2     :     0.009854  d :     0.042073
      dxz     :     0.012189
      dyz     :     0.009257
      dx2y2   :     0.005413
      dxy     :     0.005360

 13 C s       :     3.223704  s :     3.223704
      pz      :     1.016845  p :     2.971257
      px      :     0.962850
      py      :     0.991562
      dz2     :     0.008463  d :     0.034352
      dxz     :     0.012704
      dyz     :     0.005366
      dx2y2   :     0.003560
      dxy     :     0.004260

 14 C s       :     3.169507  s :     3.169507
      pz      :     0.947026  p :     2.789980
      px      :     0.896416
      py      :     0.946538
      dz2     :     0.009914  d :     0.040359
      dxz     :     0.011191
      dyz     :     0.007524
      dx2y2   :     0.005929
      dxy     :     0.005802

 15 C s       :     3.163642  s :     3.163642
      pz      :     0.913736  p :     2.800761
      px      :     0.917503
      py      :     0.969522
      dz2     :     0.010109  d :     0.039575
      dxz     :     0.010754
      dyz     :     0.007503
      dx2y2   :     0.005549
      dxy     :     0.005661

 16 H s       :     0.862580  s :     0.862580

 17 H s       :     0.873749  s :     0.873749

 18 H s       :     0.876760  s :     0.876760

 19 H s       :     0.877489  s :     0.877489

 20 H s       :     0.887758  s :     0.887758

 21 H s       :     0.819873  s :     0.819873

 22 H s       :     0.872074  s :     0.872074

 23 H s       :     0.860405  s :     0.860405

 24 H s       :     0.854480  s :     0.854480

 25 O s       :     3.937138  s :     3.937138
      pz      :     1.599052  p :     4.476963
      px      :     1.464603
      py      :     1.413308
      dz2     :     0.004279  d :     0.034080
      dxz     :     0.004231
      dyz     :     0.006944
      dx2y2   :     0.009207
      dxy     :     0.009418

 26 O s       :     3.891964  s :     3.891964
      pz      :     1.283007  p :     4.717063
      px      :     1.663538
      py      :     1.770518
      dz2     :     0.003422  d :     0.028890
      dxz     :     0.010886
      dyz     :     0.005713
      dx2y2   :     0.003121
      dxy     :     0.005747

 27 H s       :     0.590118  s :     0.590118

 28 C s       :     3.295409  s :     3.295409
      pz      :     1.038124  p :     3.127394
      px      :     1.066109
      py      :     1.023161
      dz2     :     0.003433  d :     0.033614
      dxz     :     0.009602
      dyz     :     0.008529
      dx2y2   :     0.007811
      dxy     :     0.004239

 29 C s       :     3.147624  s :     3.147624
      pz      :     0.956419  p :     2.646650
      px      :     0.756462
      py      :     0.933769
      dz2     :     0.008123  d :     0.067256
      dxz     :     0.018583
      dyz     :     0.012731
      dx2y2   :     0.015284
      dxy     :     0.012535

 30 C s       :     3.143947  s :     3.143947
      pz      :     0.968916  p :     2.684388
      px      :     0.771434
      py      :     0.944037
      dz2     :     0.007409  d :     0.066970
      dxz     :     0.014896
      dyz     :     0.016857
      dx2y2   :     0.013987
      dxy     :     0.013820

 31 C s       :     3.172549  s :     3.172549
      pz      :     0.811832  p :     2.763314
      px      :     0.926086
      py      :     1.025397
      dz2     :     0.018091  d :     0.058306
      dxz     :     0.012525
      dyz     :     0.009633
      dx2y2   :     0.011933
      dxy     :     0.006123

 32 C s       :     3.261100  s :     3.261100
      pz      :     0.949630  p :     3.014007
      px      :     0.991943
      py      :     1.072435
      dz2     :     0.009033  d :     0.037631
      dxz     :     0.005984
      dyz     :     0.006645
      dx2y2   :     0.006672
      dxy     :     0.009297

 33 C s       :     3.055887  s :     3.055887
      pz      :     0.876127  p :     2.491454
      px      :     0.941634
      py      :     0.673692
      dz2     :     0.018680  d :     0.097327
      dxz     :     0.009285
      dyz     :     0.023223
      dx2y2   :     0.026304
      dxy     :     0.019835

 34 O s       :     3.874367  s :     3.874367
      pz      :     1.712605  p :     4.612859
      px      :     1.366153
      py      :     1.534101
      dz2     :     0.003327  d :     0.025879
      dxz     :     0.006031
      dyz     :     0.005269
      dx2y2   :     0.006996
      dxy     :     0.004257

 35 O s       :     3.886139  s :     3.886139
      pz      :     1.308857  p :     4.596210
      px      :     1.756357
      py      :     1.530996
      dz2     :     0.007585  d :     0.026599
      dxz     :     0.005268
      dyz     :     0.005043
      dx2y2   :     0.004440
      dxy     :     0.004262

 36 C s       :     3.148723  s :     3.148723
      pz      :     0.725826  p :     2.678614
      px      :     0.960783
      py      :     0.992005
      dz2     :     0.020910  d :     0.068774
      dxz     :     0.017112
      dyz     :     0.009916
      dx2y2   :     0.006846
      dxy     :     0.013989

 37 C s       :     3.263364  s :     3.263364
      pz      :     0.942072  p :     3.026892
      px      :     1.023438
      py      :     1.061382
      dz2     :     0.008116  d :     0.038079
      dxz     :     0.008739
      dyz     :     0.005603
      dx2y2   :     0.010349
      dxy     :     0.005272

 38 C s       :     3.130552  s :     3.130552
      pz      :     0.842184  p :     2.550714
      px      :     0.735082
      py      :     0.973448
      dz2     :     0.014188  d :     0.071300
      dxz     :     0.019294
      dyz     :     0.010849
      dx2y2   :     0.017005
      dxy     :     0.009965

 39 C s       :     3.283122  s :     3.283122
      pz      :     1.065797  p :     3.053443
      px      :     1.035429
      py      :     0.952217
      dz2     :     0.007693  d :     0.039279
      dxz     :     0.007619
      dyz     :     0.008324
      dx2y2   :     0.010181
      dxy     :     0.005462

 40 C s       :     3.160972  s :     3.160972
      pz      :     0.936093  p :     2.741050
      px      :     0.889749
      py      :     0.915208
      dz2     :     0.008388  d :     0.039381
      dxz     :     0.006623
      dyz     :     0.007613
      dx2y2   :     0.008236
      dxy     :     0.008521

 41 C s       :     3.157099  s :     3.157099
      pz      :     0.932645  p :     2.761226
      px      :     0.949135
      py      :     0.879446
      dz2     :     0.007183  d :     0.037861
      dxz     :     0.006519
      dyz     :     0.007058
      dx2y2   :     0.008797
      dxy     :     0.008304

 42 C s       :     3.141143  s :     3.141143
      pz      :     0.825431  p :     2.536533
      px      :     0.897632
      py      :     0.813470
      dz2     :     0.013839  d :     0.073223
      dxz     :     0.010399
      dyz     :     0.016832
      dx2y2   :     0.015577
      dxy     :     0.016577

 43 C s       :     3.142986  s :     3.142986
      pz      :     0.994089  p :     2.813518
      px      :     0.942854
      py      :     0.876576
      dz2     :     0.006439  d :     0.036739
      dxz     :     0.006484
      dyz     :     0.007472
      dx2y2   :     0.007932
      dxy     :     0.008412

 44 C s       :     3.141173  s :     3.141173
      pz      :     0.982294  p :     2.808139
      px      :     0.923315
      py      :     0.902530
      dz2     :     0.007997  d :     0.037110
      dxz     :     0.006108
      dyz     :     0.006945
      dx2y2   :     0.007901
      dxy     :     0.008158

 45 C s       :     3.138349  s :     3.138349
      pz      :     0.814176  p :     2.561198
      px      :     0.901631
      py      :     0.845391
      dz2     :     0.016753  d :     0.073184
      dxz     :     0.011596
      dyz     :     0.015835
      dx2y2   :     0.013677
      dxy     :     0.015322

 46 O s       :     3.891824  s :     3.891824
      pz      :     1.610377  p :     4.714573
      px      :     1.693936
      py      :     1.410261
      dz2     :     0.007267  d :     0.028530
      dxz     :     0.005327
      dyz     :     0.004080
      dx2y2   :     0.002582
      dxy     :     0.009275

 47 C s       :     3.116985  s :     3.116985
      pz      :     0.792931  p :     2.496847
      px      :     0.848072
      py      :     0.855844
      dz2     :     0.016668  d :     0.086948
      dxz     :     0.015361
      dyz     :     0.017801
      dx2y2   :     0.021311
      dxy     :     0.015806

 48 O s       :     3.891651  s :     3.891651
      pz      :     1.424216  p :     4.587538
      px      :     1.585281
      py      :     1.578041
      dz2     :     0.006284  d :     0.025876
      dxz     :     0.003245
      dyz     :     0.006955
      dx2y2   :     0.003940
      dxy     :     0.005452

 49 C s       :     3.177704  s :     3.177704
      pz      :     0.947656  p :     2.739651
      px      :     0.937913
      py      :     0.854081
      dz2     :     0.006068  d :     0.038960
      dxz     :     0.006519
      dyz     :     0.008867
      dx2y2   :     0.008608
      dxy     :     0.008898

 50 C s       :     3.166172  s :     3.166172
      pz      :     0.974001  p :     2.775612
      px      :     0.912990
      py      :     0.888621
      dz2     :     0.006791  d :     0.035618
      dxz     :     0.005957
      dyz     :     0.006809
      dx2y2   :     0.008131
      dxy     :     0.007929

 51 C s       :     3.124757  s :     3.124757
      pz      :     0.800897  p :     2.457382
      px      :     0.844020
      py      :     0.812464
      dz2     :     0.017225  d :     0.086671
      dxz     :     0.015425
      dyz     :     0.016796
      dx2y2   :     0.021204
      dxy     :     0.016021

 52 O s       :     3.905898  s :     3.905898
      pz      :     1.449841  p :     4.571945
      px      :     1.609189
      py      :     1.512916
      dz2     :     0.007135  d :     0.026161
      dxz     :     0.004360
      dyz     :     0.006040
      dx2y2   :     0.003282
      dxy     :     0.005343

 53 C s       :     3.104930  s :     3.104930
      pz      :     0.824134  p :     2.505278
      px      :     0.882448
      py      :     0.798696
      dz2     :     0.014200  d :     0.072091
      dxz     :     0.010280
      dyz     :     0.017055
      dx2y2   :     0.014431
      dxy     :     0.016124

 54 C s       :     3.183896  s :     3.183896
      pz      :     1.017749  p :     2.982326
      px      :     1.003816
      py      :     0.960761
      dz2     :     0.004754  d :     0.034093
      dxz     :     0.006997
      dyz     :     0.006698
      dx2y2   :     0.008317
      dxy     :     0.007327

 55 C s       :     3.206601  s :     3.206601
      pz      :     0.939276  p :     2.877070
      px      :     0.955426
      py      :     0.982368
      dz2     :     0.008296  d :     0.037476
      dxz     :     0.005817
      dyz     :     0.006061
      dx2y2   :     0.008372
      dxy     :     0.008930

 56 C s       :     3.213018  s :     3.213018
      pz      :     0.964477  p :     2.923394
      px      :     0.943246
      py      :     1.015672
      dz2     :     0.004789  d :     0.035734
      dxz     :     0.005914
      dyz     :     0.008659
      dx2y2   :     0.007980
      dxy     :     0.008393

 57 O s       :     3.876228  s :     3.876228
      pz      :     1.462183  p :     4.539531
      px      :     1.479740
      py      :     1.597608
      dz2     :     0.005102  d :     0.030869
      dxz     :     0.004776
      dyz     :     0.008108
      dx2y2   :     0.005685
      dxy     :     0.007198

 58 C s       :     3.254758  s :     3.254758
      pz      :     0.945460  p :     2.907281
      px      :     0.865495
      py      :     1.096326
      dz2     :     0.005649  d :     0.058956
      dxz     :     0.017021
      dyz     :     0.015284
      dx2y2   :     0.013084
      dxy     :     0.007917

 59 O s       :     3.903802  s :     3.903802
      pz      :     1.543548  p :     4.711619
      px      :     1.583142
      py      :     1.584929
      dz2     :     0.003570  d :     0.028477
      dxz     :     0.003744
      dyz     :     0.007846
      dx2y2   :     0.005363
      dxy     :     0.007954

 60 C s       :     3.130910  s :     3.130910
      pz      :     0.858978  p :     2.423005
      px      :     0.781468
      py      :     0.782559
      dz2     :     0.014575  d :     0.084823
      dxz     :     0.010614
      dyz     :     0.022944
      dx2y2   :     0.017564
      dxy     :     0.019126

 61 O s       :     3.885247  s :     3.885247
      pz      :     1.663570  p :     4.511468
      px      :     1.483959
      py      :     1.363940
      dz2     :     0.003478  d :     0.028337
      dxz     :     0.002831
      dyz     :     0.006190
      dx2y2   :     0.008710
      dxy     :     0.007127

 62 C s       :     3.186019  s :     3.186019
      pz      :     0.927732  p :     2.820887
      px      :     0.934821
      py      :     0.958334
      dz2     :     0.010445  d :     0.064835
      dxz     :     0.014676
      dyz     :     0.011829
      dx2y2   :     0.015579
      dxy     :     0.012306

 63 O s       :     3.875609  s :     3.875609
      pz      :     1.672404  p :     4.730028
      px      :     1.660031
      py      :     1.397593
      dz2     :     0.003231  d :     0.026811
      dxz     :     0.005832
      dyz     :     0.010471
      dx2y2   :     0.005002
      dxy     :     0.002275

 64 O s       :     3.913472  s :     3.913472
      pz      :     1.765604  p :     4.709265
      px      :     1.515290
      py      :     1.428370
      dz2     :     0.005172  d :     0.027433
      dxz     :     0.005640
      dyz     :     0.002035
      dx2y2   :     0.011620
      dxy     :     0.002966

 65 N s       :     3.655477  s :     3.655477
      pz      :     1.346664  p :     4.026803
      px      :     1.353656
      py      :     1.326483
      dz2     :     0.012259  d :     0.033871
      dxz     :     0.002838
      dyz     :     0.002480
      dx2y2   :     0.015877
      dxy     :     0.000416

 66 O s       :     3.887883  s :     3.887883
      pz      :     1.558423  p :     4.733425
      px      :     1.308044
      py      :     1.866958
      dz2     :     0.004909  d :     0.026720
      dxz     :     0.013059
      dyz     :     0.003403
      dx2y2   :     0.002898
      dxy     :     0.002451

 67 H s       :     0.849292  s :     0.849292

 68 H s       :     0.857099  s :     0.857099

 69 H s       :     0.844926  s :     0.844926

 70 H s       :     0.891654  s :     0.891654

 71 H s       :     0.866232  s :     0.866232

 72 H s       :     0.853944  s :     0.853944

 73 H s       :     0.856054  s :     0.856054

 74 H s       :     0.830731  s :     0.830731

 75 H s       :     0.854382  s :     0.854382

 76 H s       :     0.828785  s :     0.828785

 77 H s       :     0.839244  s :     0.839244

 78 H s       :     0.839747  s :     0.839747

 79 H s       :     0.814709  s :     0.814709

 80 H s       :     0.811410  s :     0.811410

 81 H s       :     0.546403  s :     0.546403

 82 H s       :     0.852232  s :     0.852232

 83 H s       :     0.852354  s :     0.852354

 84 H s       :     0.831015  s :     0.831015

 85 H s       :     0.841411  s :     0.841411

 86 H s       :     0.814767  s :     0.814767

 87 H s       :     0.843441  s :     0.843441

 88 H s       :     0.543367  s :     0.543367

 89 H s       :     0.827014  s :     0.827014

 90 H s       :     0.822750  s :     0.822750

 91 H s       :     0.579920  s :     0.579920

 92 H s       :     0.593897  s :     0.593897

 93 H s       :     0.687332  s :     0.687332

 94 H s       :     0.706838  s :     0.706838

 95 H s       :     0.601023  s :     0.601023



                     *******************************
                     * LOEWDIN POPULATION ANALYSIS *
                     *******************************

----------------------
LOEWDIN ATOMIC CHARGES
----------------------
   0 C :   -0.015211
   1 C :   -0.008653
   2 C :   -0.031894
   3 C :   -0.125948
   4 C :   -0.129720
   5 C :   -0.001303
   6 C :   -0.192874
   7 C :    0.071103
   8 C :   -0.147388
   9 C :   -0.005504
  10 C :   -0.127112
  11 C :   -0.124174
  12 C :   -0.008523
  13 C :   -0.145970
  14 C :    0.001963
  15 C :   -0.012901
  16 H :    0.126147
  17 H :    0.121415
  18 H :    0.130404
  19 H :    0.129653
  20 H :    0.125507
  21 H :    0.156655
  22 H :    0.134992
  23 H :    0.135847
  24 H :    0.139526
  25 O :   -0.241128
  26 O :   -0.314462
  27 H :    0.324771
  28 C :   -0.375573
  29 C :   -0.016629
  30 C :   -0.047856
  31 C :   -0.077459
  32 C :   -0.240630
  33 C :    0.074823
  34 O :   -0.234389
  35 O :   -0.223859
  36 C :    0.008490
  37 C :   -0.241576
  38 C :    0.037763
  39 C :   -0.220042
  40 C :   -0.022696
  41 C :   -0.024334
  42 C :    0.103805
  43 C :   -0.090954
  44 C :   -0.093365
  45 C :    0.096607
  46 O :   -0.301798
  47 C :    0.131791
  48 O :   -0.257635
  49 C :   -0.025386
  50 C :   -0.060008
  51 C :    0.132520
  52 O :   -0.249847
  53 C :    0.103548
  54 C :   -0.165370
  55 C :   -0.098464
  56 C :   -0.114770
  57 O :   -0.127638
  58 C :   -0.206243
  59 O :   -0.303958
  60 C :    0.112278
  61 O :   -0.202807
  62 C :   -0.138209
  63 O :   -0.401157
  64 O :   -0.375543
  65 N :   -0.460528
  66 O :   -0.403905
  67 H :    0.132173
  68 H :    0.121855
  69 H :    0.132981
  70 H :    0.109480
  71 H :    0.114992
  72 H :    0.128684
  73 H :    0.130603
  74 H :    0.145083
  75 H :    0.121164
  76 H :    0.139940
  77 H :    0.137609
  78 H :    0.139166
  79 H :    0.154087
  80 H :    0.150722
  81 H :    0.336820
  82 H :    0.143300
  83 H :    0.140950
  84 H :    0.154828
  85 H :    0.123355
  86 H :    0.143565
  87 H :    0.121531
  88 H :    0.335768
  89 H :    0.140196
  90 H :    0.141836
  91 H :    0.314283
  92 H :    0.318524
  93 H :    0.230360
  94 H :    0.218440
  95 H :    0.313490

-------------------------------
LOEWDIN REDUCED ORBITAL CHARGES
-------------------------------
  0 C s       :     2.888683  s :     2.888683
      pz      :     1.056851  p :     2.976100
      px      :     0.920328
      py      :     0.998921
      dz2     :     0.031543  d :     0.150427
      dxz     :     0.029524
      dyz     :     0.020431
      dx2y2   :     0.030321
      dxy     :     0.038609

  1 C s       :     2.887478  s :     2.887478
      pz      :     1.010886  p :     2.968940
      px      :     1.041004
      py      :     0.917050
      dz2     :     0.035966  d :     0.152235
      dxz     :     0.026999
      dyz     :     0.033022
      dx2y2   :     0.023862
      dxy     :     0.032386

  2 C s       :     2.868191  s :     2.868191
      pz      :     1.022064  p :     3.062450
      px      :     1.033969
      py      :     1.006418
      dz2     :     0.028243  d :     0.101253
      dxz     :     0.029696
      dyz     :     0.015219
      dx2y2   :     0.013561
      dxy     :     0.014535

  3 C s       :     2.913413  s :     2.913413
      pz      :     1.067243  p :     3.125883
      px      :     1.042515
      py      :     1.016125
      dz2     :     0.026974  d :     0.086652
      dxz     :     0.024479
      dyz     :     0.019337
      dx2y2   :     0.005893
      dxy     :     0.009969

  4 C s       :     2.914263  s :     2.914263
      pz      :     1.073663  p :     3.131024
      px      :     1.038784
      py      :     1.018577
      dz2     :     0.021645  d :     0.084432
      dxz     :     0.026584
      dyz     :     0.017017
      dx2y2   :     0.008228
      dxy     :     0.010959

  5 C s       :     2.860667  s :     2.860667
      pz      :     1.038288  p :     3.034386
      px      :     1.018701
      py      :     0.977396
      dz2     :     0.028249  d :     0.106250
      dxz     :     0.029785
      dyz     :     0.021132
      dx2y2   :     0.012853
      dxy     :     0.014232

  6 C s       :     2.913259  s :     2.913259
      pz      :     1.059511  p :     3.198614
      px      :     1.059429
      py      :     1.079673
      dz2     :     0.020449  d :     0.081001
      dxz     :     0.024979
      dyz     :     0.014232
      dx2y2   :     0.009581
      dxy     :     0.011759

  7 C s       :     2.852417  s :     2.852417
      pz      :     0.891225  p :     2.906602
      px      :     1.033812
      py      :     0.981566
      dz2     :     0.048601  d :     0.169878
      dxz     :     0.050340
      dyz     :     0.035503
      dx2y2   :     0.018391
      dxy     :     0.017042

  8 C s       :     2.919336  s :     2.919336
      pz      :     1.047957  p :     3.148242
      px      :     1.069242
      py      :     1.031044
      dz2     :     0.023275  d :     0.079810
      dxz     :     0.025201
      dyz     :     0.016598
      dx2y2   :     0.006294
      dxy     :     0.008443

  9 C s       :     2.862677  s :     2.862677
      pz      :     1.044392  p :     3.036790
      px      :     1.020665
      py      :     0.971733
      dz2     :     0.028419  d :     0.106037
      dxz     :     0.031471
      dyz     :     0.020465
      dx2y2   :     0.012261
      dxy     :     0.013421

 10 C s       :     2.918714  s :     2.918714
      pz      :     1.067884  p :     3.123593
      px      :     1.052337
      py      :     1.003372
      dz2     :     0.026388  d :     0.084804
      dxz     :     0.025824
      dyz     :     0.018468
      dx2y2   :     0.005585
      dxy     :     0.008539

 11 C s       :     2.918422  s :     2.918422
      pz      :     1.086645  p :     3.120784
      px      :     1.033023
      py      :     1.001115
      dz2     :     0.022261  d :     0.084969
      dxz     :     0.028489
      dyz     :     0.016301
      dx2y2   :     0.008056
      dxy     :     0.009862

 12 C s       :     2.866430  s :     2.866430
      pz      :     1.055845  p :     3.036766
      px      :     1.012945
      py      :     0.967976
      dz2     :     0.028656  d :     0.105328
      dxz     :     0.031296
      dyz     :     0.021453
      dx2y2   :     0.011617
      dxy     :     0.012306

 13 C s       :     2.927589  s :     2.927589
      pz      :     1.080483  p :     3.137812
      px      :     1.047962
      py      :     1.009367
      dz2     :     0.021721  d :     0.080569
      dxz     :     0.030384
      dyz     :     0.011229
      dx2y2   :     0.007943
      dxy     :     0.009291

 14 C s       :     2.861258  s :     2.861258
      pz      :     1.028820  p :     3.035369
      px      :     1.019276
      py      :     0.987272
      dz2     :     0.026898  d :     0.101410
      dxz     :     0.030604
      dyz     :     0.017369
      dx2y2   :     0.012527
      dxy     :     0.014011

 15 C s       :     2.857489  s :     2.857489
      pz      :     1.031363  p :     3.055237
      px      :     1.021080
      py      :     1.002795
      dz2     :     0.027944  d :     0.100175
      dxz     :     0.029119
      dyz     :     0.017998
      dx2y2   :     0.011858
      dxy     :     0.013256

 16 H s       :     0.873853  s :     0.873853

 17 H s       :     0.878585  s :     0.878585

 18 H s       :     0.869596  s :     0.869596

 19 H s       :     0.870347  s :     0.870347

 20 H s       :     0.874493  s :     0.874493

 21 H s       :     0.843345  s :     0.843345

 22 H s       :     0.865008  s :     0.865008

 23 H s       :     0.864153  s :     0.864153

 24 H s       :     0.860474  s :     0.860474

 25 O s       :     3.588794  s :     3.588794
      pz      :     1.608509  p :     4.584909
      px      :     1.496313
      py      :     1.480087
      dz2     :     0.009888  d :     0.067425
      dxz     :     0.008145
      dyz     :     0.012769
      dx2y2   :     0.015997
      dxy     :     0.020627

 26 O s       :     3.527845  s :     3.527845
      pz      :     1.309602  p :     4.733456
      px      :     1.663635
      py      :     1.760218
      dz2     :     0.010268  d :     0.053162
      dxz     :     0.020806
      dyz     :     0.011699
      dx2y2   :     0.003436
      dxy     :     0.006953

 27 H s       :     0.675229  s :     0.675229

 28 C s       :     2.982273  s :     2.982273
      pz      :     1.107866  p :     3.326999
      px      :     1.129747
      py      :     1.089386
      dz2     :     0.006592  d :     0.066301
      dxz     :     0.017791
      dyz     :     0.018330
      dx2y2   :     0.015507
      dxy     :     0.008080

 29 C s       :     2.905726  s :     2.905726
      pz      :     1.041927  p :     2.961363
      px      :     0.879875
      py      :     1.039561
      dz2     :     0.016034  d :     0.149540
      dxz     :     0.039546
      dyz     :     0.030732
      dx2y2   :     0.035335
      dxy     :     0.027892

 30 C s       :     2.909114  s :     2.909114
      pz      :     1.047745  p :     2.987386
      px      :     0.888615
      py      :     1.051026
      dz2     :     0.014692  d :     0.151355
      dxz     :     0.035808
      dyz     :     0.037070
      dx2y2   :     0.030234
      dxy     :     0.033551

 31 C s       :     2.892467  s :     2.892467
      pz      :     0.952910  p :     3.056007
      px      :     1.027025
      py      :     1.076072
      dz2     :     0.040263  d :     0.128985
      dxz     :     0.029330
      dyz     :     0.021541
      dx2y2   :     0.025593
      dxy     :     0.012258

 32 C s       :     2.942985  s :     2.942985
      pz      :     1.042039  p :     3.217806
      px      :     1.058937
      py      :     1.116830
      dz2     :     0.021368  d :     0.079839
      dxz     :     0.013138
      dyz     :     0.013315
      dx2y2   :     0.014417
      dxy     :     0.017601

 33 C s       :     2.881115  s :     2.881115
      pz      :     0.985158  p :     2.826561
      px      :     1.022653
      py      :     0.818750
      dz2     :     0.044193  d :     0.217501
      dxz     :     0.018226
      dyz     :     0.051434
      dx2y2   :     0.059118
      dxy     :     0.044531

 34 O s       :     3.493508  s :     3.493508
      pz      :     1.715459  p :     4.680957
      px      :     1.415232
      py      :     1.550266
      dz2     :     0.007133  d :     0.059924
      dxz     :     0.013004
      dyz     :     0.009850
      dx2y2   :     0.016711
      dxy     :     0.013227

 35 O s       :     3.498791  s :     3.498791
      pz      :     1.343173  p :     4.664066
      px      :     1.763586
      py      :     1.557307
      dz2     :     0.018664  d :     0.061002
      dxz     :     0.011814
      dyz     :     0.014426
      dx2y2   :     0.008393
      dxy     :     0.007705

 36 C s       :     2.887112  s :     2.887112
      pz      :     0.853085  p :     2.953167
      px      :     1.045713
      py      :     1.054370
      dz2     :     0.046249  d :     0.151231
      dxz     :     0.040055
      dyz     :     0.020505
      dx2y2   :     0.014805
      dxy     :     0.029617

 37 C s       :     2.942921  s :     2.942921
      pz      :     1.030621  p :     3.217065
      px      :     1.080251
      py      :     1.106193
      dz2     :     0.018581  d :     0.081591
      dxz     :     0.019720
      dyz     :     0.012760
      dx2y2   :     0.020525
      dxy     :     0.010005

 38 C s       :     2.869973  s :     2.869973
      pz      :     0.985425  p :     2.925499
      px      :     0.892654
      py      :     1.047420
      dz2     :     0.032934  d :     0.166764
      dxz     :     0.045976
      dyz     :     0.024647
      dx2y2   :     0.041500
      dxy     :     0.021706

 39 C s       :     2.926376  s :     2.926376
      pz      :     1.097474  p :     3.210498
      px      :     1.082172
      py      :     1.030851
      dz2     :     0.016002  d :     0.083168
      dxz     :     0.015694
      dyz     :     0.016753
      dx2y2   :     0.023277
      dxy     :     0.011443

 40 C s       :     2.874758  s :     2.874758
      pz      :     1.015565  p :     3.049145
      px      :     1.002187
      py      :     1.031393
      dz2     :     0.019257  d :     0.098793
      dxz     :     0.015823
      dyz     :     0.020168
      dx2y2   :     0.021431
      dxy     :     0.022114

 41 C s       :     2.882140  s :     2.882140
      pz      :     1.010667  p :     3.047032
      px      :     1.006214
      py      :     1.030151
      dz2     :     0.016751  d :     0.095162
      dxz     :     0.016975
      dyz     :     0.018406
      dx2y2   :     0.022102
      dxy     :     0.020929

 42 C s       :     2.848513  s :     2.848513
      pz      :     0.918167  p :     2.872809
      px      :     0.980174
      py      :     0.974468
      dz2     :     0.030579  d :     0.174873
      dxz     :     0.025560
      dyz     :     0.040466
      dx2y2   :     0.039110
      dxy     :     0.039157

 43 C s       :     2.868132  s :     2.868132
      pz      :     1.045122  p :     3.126041
      px      :     1.040501
      py      :     1.040419
      dz2     :     0.015534  d :     0.096781
      dxz     :     0.016345
      dyz     :     0.020116
      dx2y2   :     0.021917
      dxy     :     0.022869

 44 C s       :     2.865056  s :     2.865056
      pz      :     1.048749  p :     3.129592
      px      :     1.047350
      py      :     1.033494
      dz2     :     0.019082  d :     0.098717
      dxz     :     0.016980
      dyz     :     0.018868
      dx2y2   :     0.021348
      dxy     :     0.022441

 45 C s       :     2.847755  s :     2.847755
      pz      :     0.924144  p :     2.880436
      px      :     0.982507
      py      :     0.973786
      dz2     :     0.037744  d :     0.175201
      dxz     :     0.028624
      dyz     :     0.038431
      dx2y2   :     0.033946
      dxy     :     0.036456

 46 O s       :     3.514525  s :     3.514525
      pz      :     1.625119  p :     4.733205
      px      :     1.694999
      py      :     1.413087
      dz2     :     0.012371  d :     0.054069
      dxz     :     0.008923
      dyz     :     0.010534
      dx2y2   :     0.006134
      dxy     :     0.016106

 47 C s       :     2.863965  s :     2.863965
      pz      :     0.894559  p :     2.797765
      px      :     0.921824
      py      :     0.981382
      dz2     :     0.036515  d :     0.206478
      dxz     :     0.038522
      dyz     :     0.043408
      dx2y2   :     0.051877
      dxy     :     0.036156

 48 O s       :     3.559628  s :     3.559628
      pz      :     1.456979  p :     4.644955
      px      :     1.583554
      py      :     1.604423
      dz2     :     0.009825  d :     0.053052
      dxz     :     0.007999
      dyz     :     0.016820
      dx2y2   :     0.008693
      dxy     :     0.009715

 49 C s       :     2.876704  s :     2.876704
      pz      :     0.998111  p :     3.048888
      px      :     1.001719
      py      :     1.049058
      dz2     :     0.014519  d :     0.099795
      dxz     :     0.016086
      dyz     :     0.022740
      dx2y2   :     0.023161
      dxy     :     0.023288

 50 C s       :     2.877350  s :     2.877350
      pz      :     1.033951  p :     3.090636
      px      :     1.028252
      py      :     1.028433
      dz2     :     0.015723  d :     0.092023
      dxz     :     0.015768
      dyz     :     0.017922
      dx2y2   :     0.021228
      dxy     :     0.021382

 51 C s       :     2.865186  s :     2.865186
      pz      :     0.894944  p :     2.795833
      px      :     0.926944
      py      :     0.973945
      dz2     :     0.037710  d :     0.206461
      dxz     :     0.037443
      dyz     :     0.041510
      dx2y2   :     0.053101
      dxy     :     0.036698

 52 O s       :     3.559739  s :     3.559739
      pz      :     1.474651  p :     4.636678
      px      :     1.608388
      py      :     1.553639
      dz2     :     0.010698  d :     0.053430
      dxz     :     0.009007
      dyz     :     0.015490
      dx2y2   :     0.007779
      dxy     :     0.010456

 53 C s       :     2.851878  s :     2.851878
      pz      :     0.913571  p :     2.874173
      px      :     0.976053
      py      :     0.984549
      dz2     :     0.031042  d :     0.170401
      dxz     :     0.024678
      dyz     :     0.040679
      dx2y2   :     0.036487
      dxy     :     0.037516

 54 C s       :     2.916501  s :     2.916501
      pz      :     1.056528  p :     3.167440
      px      :     1.058701
      py      :     1.052211
      dz2     :     0.010950  d :     0.081428
      dxz     :     0.013475
      dyz     :     0.017900
      dx2y2   :     0.020908
      dxy     :     0.018194

 55 C s       :     2.915876  s :     2.915876
      pz      :     1.008193  p :     3.094383
      px      :     1.023252
      py      :     1.062939
      dz2     :     0.018221  d :     0.088205
      dxz     :     0.015678
      dyz     :     0.015173
      dx2y2   :     0.018914
      dxy     :     0.020220

 56 C s       :     2.913518  s :     2.913518
      pz      :     1.029220  p :     3.116764
      px      :     1.025638
      py      :     1.061906
      dz2     :     0.010720  d :     0.084488
      dxz     :     0.013553
      dyz     :     0.018890
      dx2y2   :     0.019682
      dxy     :     0.021644

 57 O s       :     3.453028  s :     3.453028
      pz      :     1.480972  p :     4.603817
      px      :     1.505473
      py      :     1.617372
      dz2     :     0.012161  d :     0.070792
      dxz     :     0.014158
      dyz     :     0.017635
      dx2y2   :     0.012319
      dxy     :     0.014520

 58 C s       :     2.976201  s :     2.976201
      pz      :     1.018025  p :     3.112228
      px      :     0.957337
      py      :     1.136866
      dz2     :     0.011134  d :     0.117814
      dxz     :     0.033283
      dyz     :     0.030678
      dx2y2   :     0.025992
      dxy     :     0.016727

 59 O s       :     3.515486  s :     3.515486
      pz      :     1.550725  p :     4.734382
      px      :     1.570538
      py      :     1.613118
      dz2     :     0.007087  d :     0.054090
      dxz     :     0.008245
      dyz     :     0.015517
      dx2y2   :     0.010233
      dxy     :     0.013008

 60 C s       :     2.919136  s :     2.919136
      pz      :     0.960822  p :     2.767583
      px      :     0.865862
      py      :     0.940899
      dz2     :     0.034130  d :     0.201003
      dxz     :     0.022535
      dyz     :     0.058084
      dx2y2   :     0.038835
      dxy     :     0.047419

 61 O s       :     3.560120  s :     3.560120
      pz      :     1.656737  p :     4.585617
      px      :     1.491725
      py      :     1.437155
      dz2     :     0.007490  d :     0.057070
      dxz     :     0.004589
      dyz     :     0.013752
      dx2y2   :     0.014906
      dxy     :     0.016333

 62 C s       :     2.929296  s :     2.929296
      pz      :     1.021752  p :     3.069873
      px      :     1.016098
      py      :     1.032023
      dz2     :     0.023611  d :     0.139039
      dxz     :     0.032099
      dyz     :     0.025651
      dx2y2   :     0.031045
      dxy     :     0.026634

 63 O s       :     3.551355  s :     3.551355
      pz      :     1.683733  p :     4.799703
      px      :     1.689459
      py      :     1.426512
      dz2     :     0.005069  d :     0.050098
      dxz     :     0.009863
      dyz     :     0.017865
      dx2y2   :     0.010748
      dxy     :     0.006553

 64 O s       :     3.568647  s :     3.568647
      pz      :     1.767506  p :     4.757779
      px      :     1.541420
      py      :     1.448853
      dz2     :     0.008636  d :     0.049117
      dxz     :     0.010783
      dyz     :     0.003332
      dx2y2   :     0.019810
      dxy     :     0.006558

 65 N s       :     3.281940  s :     3.281940
      pz      :     1.391238  p :     4.115668
      px      :     1.367944
      py      :     1.356487
      dz2     :     0.023023  d :     0.062920
      dxz     :     0.006506
      dyz     :     0.006328
      dx2y2   :     0.025420
      dxy     :     0.001642

 66 O s       :     3.562858  s :     3.562858
      pz      :     1.589412  p :     4.791667
      px      :     1.337228
      py      :     1.865028
      dz2     :     0.007613  d :     0.049380
      dxz     :     0.023583
      dyz     :     0.004957
      dx2y2   :     0.007065
      dxy     :     0.006163

 67 H s       :     0.867827  s :     0.867827

 68 H s       :     0.878145  s :     0.878145

 69 H s       :     0.867019  s :     0.867019

 70 H s       :     0.890520  s :     0.890520

 71 H s       :     0.885008  s :     0.885008

 72 H s       :     0.871316  s :     0.871316

 73 H s       :     0.869397  s :     0.869397

 74 H s       :     0.854917  s :     0.854917

 75 H s       :     0.878836  s :     0.878836

 76 H s       :     0.860060  s :     0.860060

 77 H s       :     0.862391  s :     0.862391

 78 H s       :     0.860834  s :     0.860834

 79 H s       :     0.845913  s :     0.845913

 80 H s       :     0.849278  s :     0.849278

 81 H s       :     0.663180  s :     0.663180

 82 H s       :     0.856700  s :     0.856700

 83 H s       :     0.859050  s :     0.859050

 84 H s       :     0.845172  s :     0.845172

 85 H s       :     0.876645  s :     0.876645

 86 H s       :     0.856435  s :     0.856435

 87 H s       :     0.878469  s :     0.878469

 88 H s       :     0.664232  s :     0.664232

 89 H s       :     0.859804  s :     0.859804

 90 H s       :     0.858164  s :     0.858164

 91 H s       :     0.685717  s :     0.685717

 92 H s       :     0.681476  s :     0.681476

 93 H s       :     0.769640  s :     0.769640

 94 H s       :     0.781560  s :     0.781560

 95 H s       :     0.686510  s :     0.686510



                      *****************************
                      * MAYER POPULATION ANALYSIS *
                      *****************************

  NA   - Mulliken gross atomic population
  ZA   - Total nuclear charge
  QA   - Mulliken gross atomic charge
  VA   - Mayer's total valence
  BVA  - Mayer's bonded valence
  FA   - Mayer's free valence

  ATOM       NA         ZA         QA         VA         BVA        FA
  0 C      5.9535     6.0000     0.0465     3.8217     3.8217     0.0000
  1 C      6.0334     6.0000    -0.0334     3.8216     3.8216    -0.0000
  2 C      5.8436     6.0000     0.1564     3.8593     3.8593    -0.0000
  3 C      6.1953     6.0000    -0.1953     3.8771     3.8771    -0.0000
  4 C      6.2092     6.0000    -0.2092     3.8746     3.8746     0.0000
  5 C      5.8329     6.0000     0.1671     3.9682     3.9682     0.0000
  6 C      6.3073     6.0000    -0.3073     3.8413     3.8413     0.0000
  7 C      5.6240     6.0000     0.3760     3.7917     3.7917    -0.0000
  8 C      6.2935     6.0000    -0.2935     3.8371     3.8371     0.0000
  9 C      5.8553     6.0000     0.1447     3.9613     3.9613     0.0000
 10 C      6.1925     6.0000    -0.1925     3.8537     3.8537     0.0000
 11 C      6.2020     6.0000    -0.2020     3.8621     3.8621     0.0000
 12 C      5.8234     6.0000     0.1766     3.9429     3.9429    -0.0000
 13 C      6.2293     6.0000    -0.2293     3.8435     3.8435    -0.0000
 14 C      5.9998     6.0000     0.0002     3.9838     3.9838    -0.0000
 15 C      6.0040     6.0000    -0.0040     3.9738     3.9738     0.0000
 16 H      0.8626     1.0000     0.1374     0.9401     0.9401    -0.0000
 17 H      0.8737     1.0000     0.1263     0.9380     0.9380     0.0000
 18 H      0.8768     1.0000     0.1232     0.9419     0.9419    -0.0000
 19 H      0.8775     1.0000     0.1225     0.9415     0.9415     0.0000
 20 H      0.8878     1.0000     0.1122     0.9438     0.9438     0.0000
 21 H      0.8199     1.0000     0.1801     0.9496     0.9496     0.0000
 22 H      0.8721     1.0000     0.1279     0.9678     0.9678     0.0000
 23 H      0.8604     1.0000     0.1396     0.9453     0.9453     0.0000
 24 H      0.8545     1.0000     0.1455     0.9517     0.9517    -0.0000
 25 O      8.4482     8.0000    -0.4482     1.8867     1.8867     0.0000
 26 O      8.6379     8.0000    -0.6379     1.8756     1.8756    -0.0000
 27 H      0.5901     1.0000     0.4099     0.8022     0.8022     0.0000
 28 C      6.4564     6.0000    -0.4564     3.8314     3.8314    -0.0000
 29 C      5.8615     6.0000     0.1385     3.8327     3.8327    -0.0000
 30 C      5.8953     6.0000     0.1047     3.7843     3.7843     0.0000
 31 C      5.9942     6.0000     0.0058     3.9138     3.9138    -0.0000
 32 C      6.3127     6.0000    -0.3127     3.8466     3.8466     0.0000
 33 C      5.6447     6.0000     0.3553     3.8330     3.8330    -0.0000
 34 O      8.5131     8.0000    -0.5131     1.9124     1.9124     0.0000
 35 O      8.5089     8.0000    -0.5089     1.8885     1.8885    -0.0000
 36 C      5.8961     6.0000     0.1039     3.7987     3.7987     0.0000
 37 C      6.3283     6.0000    -0.3283     3.8399     3.8399     0.0000
 38 C      5.7526     6.0000     0.2474     3.7553     3.7553    -0.0000
 39 C      6.3758     6.0000    -0.3758     3.7977     3.7977     0.0000
 40 C      5.9414     6.0000     0.0586     3.8955     3.8955     0.0000
 41 C      5.9562     6.0000     0.0438     3.9173     3.9173     0.0000
 42 C      5.7509     6.0000     0.2491     3.8125     3.8125    -0.0000
 43 C      5.9932     6.0000     0.0068     3.7412     3.7412     0.0000
 44 C      5.9864     6.0000     0.0136     3.7289     3.7289     0.0000
 45 C      5.7727     6.0000     0.2273     3.8321     3.8321     0.0000
 46 O      8.6349     8.0000    -0.6349     1.9144     1.9144    -0.0000
 47 C      5.7008     6.0000     0.2992     3.8530     3.8530     0.0000
 48 O      8.5051     8.0000    -0.5051     2.0635     2.0635     0.0000
 49 C      5.9563     6.0000     0.0437     3.9509     3.9509     0.0000
 50 C      5.9774     6.0000     0.0226     3.7918     3.7918    -0.0000
 51 C      5.6688     6.0000     0.3312     3.8120     3.8120    -0.0000
 52 O      8.5040     8.0000    -0.5040     2.0392     2.0392     0.0000
 53 C      5.6823     6.0000     0.3177     3.8229     3.8229     0.0000
 54 C      6.2003     6.0000    -0.2003     3.8595     3.8595     0.0000
 55 C      6.1211     6.0000    -0.1211     3.9124     3.9124    -0.0000
 56 C      6.1721     6.0000    -0.1721     3.8839     3.8839     0.0000
 57 O      8.4466     8.0000    -0.4466     2.0688     2.0688     0.0000
 58 C      6.2210     6.0000    -0.2210     3.7621     3.7621     0.0000
 59 O      8.6439     8.0000    -0.6439     1.8984     1.8984    -0.0000
 60 C      5.6387     6.0000     0.3613     3.7863     3.7863     0.0000
 61 O      8.4251     8.0000    -0.4251     2.0969     2.0969    -0.0000
 62 C      6.0717     6.0000    -0.0717     3.7532     3.7532    -0.0000
 63 O      8.6324     8.0000    -0.6324     1.8320     1.8320    -0.0000
 64 O      8.6502     8.0000    -0.6502     1.7827     1.7827    -0.0000
 65 N      7.7162     7.0000    -0.7162     2.7778     2.7778    -0.0000
 66 O      8.6480     8.0000    -0.6480     1.7912     1.7912     0.0000
 67 H      0.8493     1.0000     0.1507     0.9442     0.9442     0.0000
 68 H      0.8571     1.0000     0.1429     0.9448     0.9448    -0.0000
 69 H      0.8449     1.0000     0.1551     0.9342     0.9342    -0.0000
 70 H      0.8917     1.0000     0.1083     0.9345     0.9345     0.0000
 71 H      0.8662     1.0000     0.1338     0.9372     0.9372    -0.0000
 72 H      0.8539     1.0000     0.1461     0.9287     0.9287    -0.0000
 73 H      0.8561     1.0000     0.1439     0.9385     0.9385     0.0000
 74 H      0.8307     1.0000     0.1693     0.9353     0.9353    -0.0000
 75 H      0.8544     1.0000     0.1456     0.9429     0.9429     0.0000
 76 H      0.8288     1.0000     0.1712     0.9362     0.9362     0.0000
 77 H      0.8392     1.0000     0.1608     0.9377     0.9377    -0.0000
 78 H      0.8397     1.0000     0.1603     0.9476     0.9476    -0.0000
 79 H      0.8147     1.0000     0.1853     0.9278     0.9278    -0.0000
 80 H      0.8114     1.0000     0.1886     0.9307     0.9307    -0.0000
 81 H      0.5464     1.0000     0.4536     0.8092     0.8092    -0.0000
 82 H      0.8522     1.0000     0.1478     0.9415     0.9415    -0.0000
 83 H      0.8524     1.0000     0.1476     0.9356     0.9356     0.0000
 84 H      0.8310     1.0000     0.1690     0.9451     0.9451     0.0000
 85 H      0.8414     1.0000     0.1586     0.9277     0.9277    -0.0000
 86 H      0.8148     1.0000     0.1852     0.9288     0.9288    -0.0000
 87 H      0.8434     1.0000     0.1566     0.9268     0.9268    -0.0000
 88 H      0.5434     1.0000     0.4566     0.8057     0.8057    -0.0000
 89 H      0.8270     1.0000     0.1730     0.9232     0.9232    -0.0000
 90 H      0.8228     1.0000     0.1772     0.9289     0.9289    -0.0000
 91 H      0.5799     1.0000     0.4201     0.8139     0.8139    -0.0000
 92 H      0.5939     1.0000     0.4061     0.8047     0.8047    -0.0000
 93 H      0.6873     1.0000     0.3127     0.8682     0.8682     0.0000
 94 H      0.7068     1.0000     0.2932     0.8730     0.8730    -0.0000
 95 H      0.6010     1.0000     0.3990     0.8055     0.8055     0.0000

  Mayer bond orders larger than 0.100000
B(  0-C ,  1-C ) :   0.9053 B(  0-C , 13-C ) :   1.0594 B(  0-C , 16-H ) :   0.9193 
B(  0-C , 25-O ) :   0.8705 B(  1-C ,  2-C ) :   1.0061 B(  1-C , 17-H ) :   0.9186 
B(  1-C , 25-O ) :   0.8917 B(  2-C ,  3-C ) :   1.2999 B(  2-C , 14-C ) :   1.4029 
B(  3-C ,  4-C ) :   1.4893 B(  3-C , 18-H ) :   0.9260 B(  4-C ,  5-C ) :   1.2638 
B(  4-C , 19-H ) :   0.9250 B(  5-C ,  6-C ) :   1.2666 B(  5-C , 15-C ) :   1.2964 
B(  6-C ,  7-C ) :   1.4217 B(  6-C , 20-H ) :   0.9158 B(  7-C ,  8-C ) :   1.2713 
B(  7-C , 26-O ) :   0.9482 B(  8-C ,  9-C ) :   1.4446 B(  8-C , 21-H ) :   0.8910 
B(  9-C , 10-C ) :   1.1365 B(  9-C , 15-C ) :   1.2509 B( 10-C , 11-C ) :   1.6661 
B( 10-C , 22-H ) :   0.9028 B( 11-C , 12-C ) :   1.1262 B( 11-C , 23-H ) :   0.9184 
B( 12-C , 13-C ) :   1.5985 B( 12-C , 14-C ) :   1.1372 B( 13-C , 24-H ) :   0.9093 
B( 14-C , 15-C ) :   1.2603 B( 26-O , 27-H ) :   0.7795 B( 28-C , 29-C ) :   1.0025 
B( 28-C , 67-H ) :   0.9323 B( 28-C , 68-H ) :   0.9411 B( 28-C , 69-H ) :   0.9447 
B( 29-C , 30-C ) :   0.9691 B( 29-C , 34-O ) :   0.8862 B( 29-C , 70-H ) :   0.9303 
B( 30-C , 31-C ) :   0.9594 B( 30-C , 66-O ) :   0.9158 B( 30-C , 71-H ) :   0.9111 
B( 31-C , 32-C ) :   0.9860 B( 31-C , 65-N ) :   1.0340 B( 31-C , 72-H ) :   0.9308 
B( 32-C , 33-C ) :   0.9972 B( 32-C , 73-H ) :   0.9265 B( 32-C , 74-H ) :   0.9288 
B( 33-C , 34-O ) :   0.9344 B( 33-C , 35-O ) :   0.8948 B( 33-C , 75-H ) :   0.9138 
B( 35-O , 36-C ) :   0.8762 B( 36-C , 37-C ) :   0.9707 B( 36-C , 41-C ) :   0.9672 
B( 36-C , 76-H ) :   0.8923 B( 37-C , 38-C ) :   0.9768 B( 37-C , 77-H ) :   0.9191 
B( 37-C , 78-H ) :   0.9157 B( 38-C , 39-C ) :   0.9763 B( 38-C , 60-C ) :   0.8813 
B( 38-C , 64-O ) :   0.8739 B( 39-C , 40-C ) :   0.9562 B( 39-C , 79-H ) :   0.9033 
B( 39-C , 80-H ) :   0.9057 B( 40-C , 41-C ) :   1.5350 B( 40-C , 45-C ) :   1.2399 
B( 41-C , 42-C ) :   1.2281 B( 42-C , 43-C ) :   1.2733 B( 42-C , 59-O ) :   1.0913 
B( 43-C , 44-C ) :   1.2608 B( 43-C , 51-C ) :   1.0267 B( 44-C , 45-C ) :   1.2628 
B( 44-C , 47-C ) :   1.0336 B( 45-C , 46-O ) :   1.1166 B( 46-O , 81-H ) :   0.6226 
B( 47-C , 48-O ) :   1.6481 B( 47-C , 49-C ) :   1.0078 B( 48-O , 81-H ) :   0.1716 
B( 49-C , 50-C ) :   1.3681 B( 49-C , 56-C ) :   1.4036 B( 50-C , 51-C ) :   1.0045 
B( 50-C , 53-C ) :   1.2758 B( 51-C , 52-O ) :   1.6120 B( 52-O , 88-H ) :   0.1824 
B( 53-C , 54-C ) :   1.3353 B( 53-C , 57-O ) :   1.0264 B( 54-C , 55-C ) :   1.4267 
B( 54-C , 82-H ) :   0.9133 B( 55-C , 56-C ) :   1.3997 B( 55-C , 83-H ) :   0.9276 
B( 56-C , 84-H ) :   0.9039 B( 57-O , 58-C ) :   0.9120 B( 58-C , 85-H ) :   0.9275 
B( 58-C , 86-H ) :   0.9453 B( 58-C , 87-H ) :   0.9266 B( 59-O , 88-H ) :   0.6075 
B( 60-C , 61-O ) :   1.8676 B( 60-C , 62-C ) :   0.9532 B( 62-C , 63-O ) :   0.9777 
B( 62-C , 89-H ) :   0.8968 B( 62-C , 90-H ) :   0.9010 B( 63-O , 91-H ) :   0.7170 
B( 64-O , 92-H ) :   0.7737 B( 65-N , 93-H ) :   0.8478 B( 65-N , 94-H ) :   0.8550 
B( 66-O , 95-H ) :   0.7830 

-------
TIMINGS
-------

Total SCF time: 0 days 0 hours 18 min 43 sec 

Total time                  ....    1123.025 sec
Sum of individual times     ....    1077.275 sec  ( 95.9%)

SCF preparation             ....       0.481 sec  (  0.0%)
Fock matrix formation       ....    1070.900 sec  ( 95.4%)
  Startup                   ....       0.086 sec  (  0.0% of F)
  Split-RI-J                ....     171.303 sec  ( 16.0% of F)
  Chain of spheres X        ....     866.808 sec  ( 80.9% of F)
  XC integration            ....      77.956 sec  (  7.3% of F)
    Basis function eval.    ....      25.888 sec  ( 33.2% of XC)
    Density eval.           ....      19.721 sec  ( 25.3% of XC)
    XC-Functional eval.     ....       2.157 sec  (  2.8% of XC)
    XC-Potential eval.      ....      26.602 sec  ( 34.1% of XC)
Diagonalization             ....       0.000 sec  (  0.0%)
Density matrix formation    ....       0.480 sec  (  0.0%)
Total Energy calculation    ....       0.149 sec  (  0.0%)
Population analysis         ....       0.281 sec  (  0.0%)
Orbital Transformation      ....       0.727 sec  (  0.1%)
Orbital Orthonormalization  ....       0.000 sec  (  0.0%)
DIIS solution               ....       2.968 sec  (  0.3%)
SOSCF solution              ....       1.289 sec  (  0.1%)
Finished LeanSCF after 1123.2 sec

Maximum memory used throughout the entire LEANSCF-calculation: 180.2 MB


-------------------------------------------------------------------------------
                          DFT DISPERSION CORRECTION                            
                                                                               
                              DFTD3 V3.1  Rev 1                                
                          USING Becke-Johnson damping                          
-------------------------------------------------------------------------------
The B3LYP functional is recognized
Active option DFTDOPT                   ...         4   

molecular C6(AA) [au] = 101764.200206 


            DFT-D V3
 parameters
 s6 scaling factor         :     1.0000 
 a1 scaling factor         :     0.3981 
 s8 scaling factor         :     1.9889 
 a2 scaling factor         :     4.4211 
 ad hoc parameters k1-k3   :    16.0000     1.3333    -4.0000 

 Edisp/kcal,au: -152.778518543880  -0.243468040821 
 E6   /kcal   : -73.369030651 
 E8   /kcal   : -79.409487893 
 % E8         :  51.976867331 

-------------------------   ----------------
Dispersion correction           -0.243468041
-------------------------   ----------------


-------------------------   --------------------
FINAL SINGLE POINT ENERGY     -2693.342293461458
-------------------------   --------------------


------------------------------------------------------------------------------
                              ORCA PROPERTY CALCULATIONS
------------------------------------------------------------------------------

GBWName                                 ... doxorubicin_on_go_D3.gbw
Number of atoms                         ...     96
Number of basis functions               ...    876
Max core memory                         ...    800 MB

Electric properties:
Dipole moment                           ... YES
Quadrupole moment                       ...  NO
Static polarizability (Dipole/Dipole)   ...  NO
Static polarizability (Dipole/Quad.)    ...  NO
Static polarizability (Quad./Quad.)     ...  NO
Static polarizability (Velocity)        ...  NO
Static hyperpolarizability              ...  NO

Atomic electric properties:
Dipole moment                           ...  NO
Quadrupole moment                       ...  NO
Static polarizability                   ...  NO

Choice of electric origin               ... Center of mass
Position of electric origin             ...     8.019075     0.159473    -5.101268

General magnetic properties:
Magnetizability                         ...  NO

EPR properties:
g-Tensor (aka g-matrix)                 ...  NO
Zero-Field splitting spin-orbit         ...  NO
Zero-field splitting spin-spin          ...  NO
Hyperfine couplings                     ...  NO (   0 nuclei)
Quadrupole couplings                    ...  NO (   0 nuclei)
Contact density                         ...  NO (   0 nuclei)

NMR properties:
Chemical shifts                         ...  NO (   0 nuclei)
Spin-rotation constants                 ...  NO (   0 nuclei)
Spin-spin couplings                     ...  NO (   0 nuclei,    0 pairs)

Choice of magnetic origin               ... GIAO
Position of magnetic origin             ...     0.000000     0.000000     0.000000

Properties with geometric perturbations:
SCF Hessian                             ...  NO
IR spectrum                             ...  NO
VCD spectrum                            ...  NO
X-ray spectroscopy properties:
SCF XES/XAS/RIXS spectra                ...  NO

SCF SOC stabilization energy            ...  NO
Diagonal Born-Oppenheimer correction    ...  NO

-------------
DIPOLE MOMENT
-------------

Method             : SCF
Type of density    : Electron Density
Multiplicity       :   1
Irrep              :   0
Energy             : -2693.0988254206372403 Eh
Basis              : AO
                                X                 Y                 Z
Electronic contribution:    -25.088210733      24.196275604      23.226291309
Nuclear contribution   :     25.407722380     -22.697893173     -23.677222911
                        -----------------------------------------
Total Dipole Moment    :      0.319511648       1.498382431      -0.450931602
                        -----------------------------------------
Magnitude (a.u.)       :      1.597052570
Magnitude (Debye)      :      4.059385029



--------------------
Rotational spectrum 
--------------------
 
Rotational constants in cm-1:             0.001963             0.001103             0.000901 
Rotational constants in MHz :            58.858449            33.072981            27.000778 

Dipole components along the rotational axes: 
x,y,z [a.u.] :     0.175883    -0.941887    -1.277690 
x,y,z [Debye]:     0.447059    -2.394085    -3.247630 

 

Dipole moment calculation done in   0.1 sec 

Maximum memory used throughout the entire PROP-calculation: 91.3 MB

--------------------------------
SUGGESTED CITATIONS FOR THIS RUN
--------------------------------

Below you find a list of papers that are relevant to this ORCA run
We neither can nor want to force you to cite these papers, but we appreciate if you do
You receive ORCA, which is the product of decades of hard work by many enthusiastic individuals, for free
The only thing we kindly ask in return is that you cite our papers,
We deeply appreciate it, if you show your appreciation for ORCA by not just citing the generic ORCA reference.

Please note that relegating all ORCA citations to the supporting information does *not* help us.
SI sections are not indexed - citations you put there will not count into any citation statistics
But we need these citations in order to attract the funding resources that allow us to do what we are doing

Therefore, if you are a happy ORCA user, please consider citing a few of the papers listed below in the main body of your paper

In addition to the list printed below, the program has created the file doxorubicin_on_go_D3.bibtex that contains the list in bibtex format
You can import this file easily into all common literature databanks and citation aid programs

It goes without saying that in many instances, there are alternative algorithms to achieve similar
results as the ones you have gotten from ORCA. It is, of course, also the case that in some instances
ORCA just re-implements algorithms worked out by others. We are fully aware of that and we are also
fully appreciative of our colleagues work. Hence this citation list should not be read as indicating
that the listed papers, which are focused on our own work, are the only ones worth citing. It simply
meant to make it easier for users to cite ORCA specific papers. It is not a substitute for doing your
own literature research and citing the relevant literature in a scientifically appropriate manner.

List of essential papers. We consider these as the minimum necessary citations

  1. Neese, F.
     Software update: the ORCA program system, version 6.0
     WIRES Comput. Molec. Sci. 2025 15(1), e70019
     doi.org/10.1002/wcms.70019

List of papers to cite with high priority. The work reported in these papers was absolutely
necessary for this run to complete.
Our perspective: the developers of density functionals and basis sets usually get cited in chemistry papers
Good! But without the algorithms to do something with them, the functionals or basis sets would not do anything.
Hence, in our opinion, the algorithm design and method developments papers are equally worthy of getting cited

  1. Neese, F.
     An improvement of the resolution of the identity approximation for the formation of the Coulomb matrix
     J. Comp. Chem. 2003 24(14), 1740-1747
     doi.org/10.1002/jcc.10318
  2. Neese, F.; Wennmohs, F.; Hansen, A.; Becker, U.
     Efficient, approximate and parallel Hartree-Fock and hybrid DFT calculations. A 'chain-of-spheres' algorithm for the Hartree-Fock exchange
     Chem. Phys. 2009 356(1-3), 98-109
     doi.org/10.1016/j.chemphys.2008.10.036
  3. Grimme, S.; Antony, J.; Ehrlich, S.; Krieg, H.
     A consistent and accurate ab initio parametrization of density functional dispersion correction (DFT-D) for the 94 elements H-Pu
     J. Chem. Phys. 2010 132 , 154104
     doi.org/10.1063/1.3382344
  4. Grimme, S.; Ehrlich, S.; Goerigk, L.
     Effect of the damping function in dispersion corrected density functional theory
     J. Comput. Chem. 2011 32(7), 1456-1465
     doi.org/10.1002/jcc.21759
  5. Helmich-Paris, B.; de Souza, B.; Neese, F.; Izsák, R.
     An improved chain of spheres for exchange algorithm
     J. Chem. Phys. 2021 155(10), 104109
     doi.org/10.1063/5.0058766
  6. Neese, F.
     The SHARK Integral Generation and Digestion System
     J. Comp. Chem. 2022 44(3), 381
     doi.org/10.1002/jcc.26942

List of suggested additional citations. These are papers that are important in the 'surrounding' of 
of this run, or papers that preceded the highly important papers. If you like your results we are grateful for a citation.

  1. Izsak, R.; Neese, F.
     An overlap fitted chain of spheres exchange method
     J. Chem. Phys. 2011 135 , 144105
     doi.org/10.1063/1.3646921
  2. Izsak, R.; Hansen, A.; Neese, F.
     The resolution of identity and chain of spheres approximations for the LPNO-CCSD singles Fock term
     Molec. Phys. 2012 110 , 2413-2417
     doi.org/10.1080/00268976.2012.687466
  3. Neese, F.
     The ORCA program system
     WIRES Comput. Molec. Sci. 2012 2(1), 73-78
     doi.org/10.1002/wcms.81
  4. Izsak, R.; Neese, F.; Klopper, W.
     Robust fitting techniques in the chain of spheres approximation to the Fock exchange: The role of the complementary space
     J. Chem. Phys. 2013 139 , 
     doi.org/10.1063/1.4819264
  5. Neese, F.
     Software update: the ORCA program system, version 4.0
     WIRES Comput. Molec. Sci. 2018 8(1), 1-6
     doi.org/10.1002/wcms.1327
  6. Neese, F.; Wennmohs, F.; Becker, U.; Riplinger, C.
     The ORCA quantum chemistry program package
     J. Chem. Phys. 2020 152(22), 224108
     doi.org/10.1063/5.0004608
  7. Neese, F.
     Software update: The ORCA program system—Version 5.0
     WIRES Comput. Molec. Sci. 2022 12(1), e1606
     doi.org/10.1002/wcms.1606

List of optional additional citations

  1. Neese, F.
     Approximate second-order SCF convergence for spin unrestricted wavefunctions
     Chem. Phys. Lett. 2000 325(1-3), 93-98
     doi.org/10.1016/s0009-2614(00)00662-x

Timings for individual modules:

Sum of individual times          ...     1174.161 sec (=  19.569 min)
Startup calculation              ...       32.687 sec (=   0.545 min)   2.8 %
SCF iterations                   ...     1141.080 sec (=  19.018 min)  97.2 %
Property calculations            ...        0.394 sec (=   0.007 min)   0.0 %
                             ****ORCA TERMINATED NORMALLY****
TOTAL RUN TIME: 0 days 0 hours 19 minutes 34 seconds 741 msec
