
                                 *****************
                                 * O   R   C   A *
                                 *****************

                                            #,                                       
                                            ###                                      
                                            ####                                     
                                            #####                                    
                                            ######                                   
                                           ########,                                 
                                     ,,################,,,,,                         
                               ,,#################################,,                 
                          ,,##########################################,,             
                       ,#########################################, ''#####,          
                    ,#############################################,,   '####,        
                  ,##################################################,,,,####,       
                ,###########''''           ''''###############################       
              ,#####''   ,,,,##########,,,,          '''####'''          '####       
            ,##' ,,,,###########################,,,                        '##       
           ' ,,###''''                  '''############,,,                           
         ,,##''                                '''############,,,,        ,,,,,,###''
      ,#''                                            '''#######################'''  
     '                                                          ''''####''''         
             ,#######,   #######,   ,#######,      ##                                
            ,#'     '#,  ##    ##  ,#'     '#,    #''#        ,####,    ,#,          
            ##       ##  ##   ,#'  ##            #'  '#       #'       ,# #          
            ##       ##  #######   ##           ,######,      #####,      #          
            '#,     ,#'  ##    ##  '#,     ,#' ,#      #,     #,   #      #          
             '#######'   ##     ##  '#######'  #'      '#     '####' #    #          



                #########################################################
                #                        -***-                          #
                #          Department of theory and spectroscopy        #
                #                                                       #
                #                      Frank Neese                      #
                #                                                       #
                #     Directorship, Architecture, Infrastructure        #
                #                    SHARK, DRIVERS                     #
                #        Core code/Algorithms in most modules           #
                #                                                       #
                #        Max Planck Institute fuer Kohlenforschung      #
                #                Kaiser Wilhelm Platz 1                 #
                #                 D-45470 Muelheim/Ruhr                 #
                #                      Germany                          #
                #                                                       #
                #                  All rights reserved                  #
                #                        -***-                          #
                #########################################################


                         Program Version 6.1.1  -  RELEASE   -


 With contributions from (in alphabetic order):
[Max-Planck-Institut fuer Kohlenforschung]                               
  Daniel Aravena         : Magnetic Suceptibility                        
  Michael Atanasov       : Ab Initio Ligand Field Theory (pilot matlab implementation)
  Alexander A. Auer      : GIAO ZORA, VPT2 properties, NMR spectrum      
  Ute Becker             : All parallelization in ORCA, NUMFREQ, NUMCALC 
  Giovanni Bistoni       : ED, misc. LED, open-shell LED, HFLD           
  Dmytro Bykov           : pre 5.0 version of the SCF Hessian            
  Marcos Casanova-Páez   : Triplet and SCS-CIS(D). UHF-(DLPNO)-IP/EA/STEOM-CCSD. UHF-CVS-IP/STEOM-CCSD   
  Vijay G. Chilkuri      : MRCI spin determinant printing, contributions to CSF-ICE 
  Pauline Colinet        : FMM embedding                                 
  Dipayan Datta          : RHF DLPNO-CCSD density                        
  Achintya Kumar Dutta   : EOM-CC, STEOM-CC                              
  Nicolas Foglia         : Exact transition moments, OPA infrastructure, MCD improvements    
  Dmitry Ganyushin       : Spin-Orbit,Spin-Spin,Magnetic field MRCI      
  Miquel Garcia-Rates    : C-PCM and meta-GGA Hessian, CCSD/C-PCM, Gaussian charge scheme 
  Tiago L. C. Gouveia    : GS-ROHF, GS-ROCIS                             
  Yang Guo               : DLPNO-NEVPT2, F12-NEVPT2, CIM, IAO-localization        
  Andreas Hansen         : Spin unrestricted coupled pair/coupled cluster methods 
  Ingolf Harden          : AUTO-CI MPn and infrastructure                
  Benjamin Helmich-Paris : MC-RPA, TRAH-(SCF,CASSCF), AVAS, COSX integrals, SCF dyn. polar., MC-PDFT, srDFT 
  Lee Huntington         : MR-EOM, pCC                                   
  Robert Izsak           : Overlap fitted RIJCOSX, COSX-SCS-MP3, EOM     
  Riya Kayal             : Wick's Theorem for AUTO-CI, AUTO-CI UHF-CCSDT 
  Emily Kempfer          : AUTO-CI RHF CISDT and CCSDT, approximate NEVPT4
  Christian Kollmar      : KDIIS, OOCD, Brueckner-CCSD(T), CCSD density, CASPT2, CASPT2-K, improved NEVPT2 
  Axel Koslowski         : Symmetry handling                             
  Simone Kossmann        : meta-GGA functionals, TD-DFT gradient, OOMP2, (MP2 Hessian; deprecated post 5.0) 
  Lucas Lang             : DCDCAS, Hyperfine gauge corrections, ICE-SOC+SSC
  Marvin Lechner         : AUTO-CI (C++ implementation), FIC-MRCC        
  Spencer Leger          : CASSCF response                               
  Dagmar Lenk            : GEPOL surface, SMD, ORCA-2-JSON               
  Dimitrios Liakos       : Extrapolation schemes; Compound Job, Property file
  Dimitrios Manganas     : Further ROCIS development; embedding schemes. LFT, Crystal Embedding 
  Dimitrios Pantazis     : SARC Basis sets                               
  Anastasios Papadopoulos: AUTO-CI, single reference methods and gradients 
  Taras Petrenko         : pre 6.0 DFT Hessian and TD-DFT gradient,  ECA, NRVS 
  Petra Pikulova         : Analytic Raman intensities                    
  Peter Pinski           : DLPNO-MP2, DLPNO-MP2 Gradient                 
  Shashank Vittal Rao    : ES-AILFT, MagRelax                            
  Christoph Reimann      : Effective Core Potentials                     
  Marius Retegan         : Local ZFS, SOC                                
  Christoph Riplinger    : Optimizer, TS searches, QM/MM, DLPNO-CCSD(T), (RO)-DLPNO pert. Triples 
  Michael Roemelt        : Original ROCIS implementation, recursive CI coupling coefficients
  Masaaki Saitow         : Open-shell DLPNO-CCSD energy and density      
  Barbara Sandhoefer     : DKH picture change effects                    
  Yorick L. A. Schmerwitz: GMF and freeze-and-release deltaSCF, NEB S-IDPP initial path                    
  Kantharuban Sivalingam : CASSCF convergence/infrastructure, NEVPT2, NEVPT3, NEVPT4(SD), FIC-MRCI and CEPA variants
  Bernardo de Souza      : ESD, SOC TD-DFT                               
  Georgi L. Stoychev     : AutoAux, RI-MP2 NMR, DLPNO-MP2 response, X2C  
  Van Anh Tran           : RI-MP2 g-tensors                              
  Willem Van den Heuvel  : Paramagnetic NMR                              
  Zikuan Wang            : NOTCH, Electric field optimization            
  Frank Wennmohs         : Technical directorship and infrastructure     
  Hang Xu                : AUTO-CI-Response properties                   
                                                                         
[FACCTs GmbH]                                                            
  Markus Bursch, Nicolas Foglia, Miquel Garcia-Rates, Ingolf Harden, Hagen Neugebauer, Anastasios Papadopoulos, 
  Christoph Riplinger, Bernardo de Souza, Georgi L. Stoychev                                                    
                                                                 
  APM, various basis sets, CI-OPT, improved COSX, DLPNO-Multilevel,           
  DOCKER, DRACO, updates on ESD, Fragmentator, GOAT, IRC, LR-CPCM, L-BFGS, MBIS, meta-GGA TD-DFT gradient, ML-optimized integration grids, 
  MM, NACMEs, nearIR, NEB, NEB-TS, NL-DFT gradient (VV10), 2- and 3-layer-ONIOM, interface openCOSMO-RS, QMMM,   
  Crystal-QMMM, RESP, rigid body optimization, SF, symmetry and pop. for TD-DFT, various functionals, SOLVATOR                                   
                                                                         
[Other institutions]                                                     
  V. Asgeirsson          : NEB                                           
  Christoph Bannwarth    : sTDA-DFT, sTD-DFT, PBEh-3c, B97-3c, D3        
  Giovanni Bistoni       : ETS/NOCV, ADLD/ADEX, COVALED                  
  Martin Brehm           : Molecular dynamics                            
  Ronald Cardenas        : ETS/NOCV                                      
  Martina Colucci        : COVALED                                       
  Sebastian Ehlert       : rSCAN, r2SCAN, r2SCAN-3c, D4, dhf basis sets  
  Marvin Friede          : D4 for Fr, Ra, Ac-Lr                          
  Lars Goerigk           : TD-DFT with DH, B97 family of functionals     
  Stefan Grimme          : VdW corrections, initial TS optimization, DFT functionals, gCP, sTDA/sTD-DF 
  Waldemar Hujo          : DFT-NL                                        
  H. Jonsson             : NEB                                           
  Holger Kruse           : gCP                                           
  Marcel Mueller         : wB97X-3c, vDZP basis set                      
  Hagen Neugebauer       : wr2SCAN, Native XTB                           
  Gianluca Regni         : ADLD/ADEX                                     
  Tobias Risthaus        : pre 6.0 range-separated hybrid DFT and stability analysis
  Lukas Wittmann         : regularized MP2, r2SCAN double-hybrids, wr2SCAN        
                                                                         
We gratefully acknowledge several colleagues who have allowed us to      
interface, adapt or use parts of their codes:                            
  Ed Valeev, F. Pavosevic, A. Kumar             : LibInt (2-el integral package), F12 methods 
  Garnet Chan, S. Sharma, J. Yang, R. Olivares  : DMRG                   
  Ulf Ekstrom                                   : XCFun DFT Library      
  Mihaly Kallay                                 : mrcc  (arbitrary order and MRCC methods)
  Frank Weinhold                                : gennbo (NPA and NBO analysis)           
  Simon Mueller                                 : openCOSMO-RS                            
  Christopher J. Cramer and Donald G. Truhlar   : smd solvation model                     
  S Lehtola, MJT Oliveira, MAL Marques          : LibXC Library                           
  Liviu Ungur et al                             : ANISO software                          


 Your calculation uses the libint2 library for the computation of 2-el integrals
 For citations please refer to: http://libint.valeyev.net

 Your ORCA version has been built with support for libXC version: 7.0.0
 For citations please refer to: https://libxc.gitlab.io

 This ORCA versions uses:
   CBLAS   interface :  Fast vector & matrix operations
   LAPACKE interface :  Fast linear algebra routines
   Shared memory     :  Shared parallel matrices


  ***********************************
  * Starting time: Fri Sep  4 00:52:35 2026
  * Host name:     DESKTOP-VL9OK5A
  * Process ID:    13480
  * Working dir.:  C:\CompChem
  ***********************************

NOTE: MaxCore=800 MB was set to SCF,MP2,MDCI,CIPSI,MRCI,RASCI and CIS
      => If you want to overwrite this, your respective input block should be placed after the MaxCore statement
Warning: RI is on but no J-basis has been assigned. Assigning Def2/J (nothing to worry about!)
================================================================================

----- Orbital basis set information -----
Your calculation utilizes the basis: 6-31G*
   H-He, Li-Ne : W. J. Hehre, R. Ditchfield and J.A. Pople, J. Chem. Phys. 56, 2257 (1972).
                 Note: He and Ne are unpublished basis sets taken from the Gaussian program.
                 Note: Li and B from J. D. Dill and J. A. Pople, J. Chem. Phys. 62, 2921 (1975).
   Na - Ar     : M. M. Francl, W. J. Pietro, W. J. Hehre, J. S. Binkley, M. S. Gordon, 
                 D. J. DeFrees and J. A. Pople, J. Chem. Phys. 77, 3654 (1982).
   Sc - Zn     : V. A. Rassolov, J. A. Pople, M. A. Ratner, and T. L. Windus, J. Chem. Phys. 109, 1223 (1998).
   K,Ca,Ga-Kr  : V.A. Rassolov, M.A. Ratner, J.A. Pople, P.C. Redfern, and L.A. Curtiss, J. Comput. Chem. 22, 976 (2001).
----- AuxJ basis set information -----
Your calculation utilizes the auxiliary basis: def2/J
   H-Rn: F. Weigend, Phys. Chem. Chem. Phys. 8, 1057 (2006).
   Fr-Lr: K. Eichkorn, F. Weigend, O. Treutler, R. Ahlrichs; Theor. Chem. Acc. 97, 119 (1997).

================================================================================
                                        WARNINGS
                       Please study these warnings very carefully!
================================================================================


================================================================================
                                       INPUT FILE
================================================================================
NAME = doxorubicin_dimerbasis_doxorubicin.inp
|  1> ! B3LYP 6-31G* SP
|  2> %maxcore 800
|  3> 
|  4> * xyz 0 1
|  5>   C       8.84227285630085   -5.50845299988359   -6.38756636495780
|  6>   C       8.98324890707044   -4.27825066928059   -5.48782398527885
|  7>   C       9.64536012401062   -3.04951113313160   -6.14796598094897
|  8>   C       8.76414180191321   -2.36824347977859   -7.23465936861870
|  9>   C       7.27030088506789   -2.55427080898952   -6.89130250761496
| 10>   C       7.02351588197875   -2.80056474017495   -5.40811930233384
| 11>   O       7.70615670147521   -3.94073344962880   -4.90933046927641
| 12>   O       7.39142967225933   -1.61787266323707   -4.71407607835113
| 13>   C       6.94230349417397   -1.53817474329830   -3.35466151481496
| 14>   C       8.13727537622270   -1.79944451670994   -2.42092973532643
| 15>   C       8.00751834134722   -1.13505607638273   -1.05149764452590
| 16>   C       7.88092431665663   0.37772161861963   -1.24403174264528
| 17>   C       6.76174051062799   0.72856305259431   -2.19897482202392
| 18>   C       6.30164853449043   -0.17059178112397   -3.15102876208257
| 19>   C       5.17965785002419   0.16888424255484   -3.96714766214827
| 20>   C       4.58581866052500   1.44143346473881   -3.87408057395465
| 21>   C       5.10074723208672   2.37971595389720   -2.93452724716103
| 22>   C       6.16799065350727   2.01871041268159   -2.09429397725395
| 23>   O       6.67532491424741   2.85275740926912   -1.17399749858725
| 24>   C       4.51001100324547   3.70549273183660   -2.81934322535933
| 25>   O       4.93755731326109   4.54407494601151   -1.99773706921791
| 26>   C       3.36824203674367   4.05844877007517   -3.70552494317499
| 27>   C       2.83645421378483   3.12379041844690   -4.62805271809499
| 28>   C       3.44308876411120   1.77453689227495   -4.73857513781641
| 29>   O       3.00581040878704   0.92720227795222   -5.54677046143900
| 30>   C       1.72795867195508   3.52910327913788   -5.42779156687316
| 31>   C       1.21467637248587   4.83041987562802   -5.29424852581645
| 32>   C       1.76745608199946   5.72562584419660   -4.38169965008191
| 33>   C       2.83964336660774   5.34575318412550   -3.58246554927261
| 34>   O       1.20371954427959   2.63411900875182   -6.29226594148832
| 35>   C       0.13682042073179   3.02959979258051   -7.14686022886841
| 36>   O       4.70893431202151   -0.77854322536999   -4.79139216322299
| 37>   C       6.85175832036721   -1.74177125459285   -0.22627820542402
| 38>   O       6.32530423277993   -2.79881225178210   -0.54335912863253
| 39>   C       6.43430237229540   -1.08683524545802   1.08571092415197
| 40>   O       5.51340610289999   -1.89779493003604   1.77320450479194
| 41>   O       9.18492030227368   -1.34006874451563   -0.25524151736406
| 42>   N       9.00391810083780   -2.79173779130597   -8.61641542907574
| 43>   O       10.89769813846286   -3.38786231843562   -6.74434909255825
| 44>   H       9.81480009668485   -5.78764952724792   -6.80568315441790
| 45>   H       8.14629543938658   -5.33456119730561   -7.21431944008694
| 46>   H       8.45425428037938   -6.34916391428442   -5.80294718104444
| 47>   H       9.61375389632476   -4.56632177774278   -4.63256940162256
| 48>   H       9.79720513050016   -2.30987555431100   -5.35031633507376
| 49>   H       9.00416235570335   -1.29963821864770   -7.19854301258398
| 50>   H       6.87791778632318   -3.42018083385499   -7.43799065815481
| 51>   H       6.68774933648106   -1.68638777514248   -7.21142301169643
| 52>   H       5.96572564119305   -3.00628741355938   -5.21510067343771
| 53>   H       6.17647513591066   -2.30437823137910   -3.18468830196898
| 54>   H       9.03617392077481   -1.38677076551132   -2.89239041056245
| 55>   H       8.27067564579521   -2.88175870817701   -2.32389820216414
| 56>   H       8.84543343485798   0.73792182740997   -1.62747056722519
| 57>   H       7.73387048486398   0.89299100513903   -0.29104212305958
| 58>   H       6.14756008152178   3.69834256329298   -1.24390553505622
| 59>   H       0.37545627345505   5.14637249878571   -5.90178899891426
| 60>   H       1.34999067020226   6.72528400958059   -4.29687716696259
| 61>   H       3.28206611332635   6.02121976701279   -2.85978674729115
| 62>   H       0.42970267014490   3.86477237113466   -7.79565691671474
| 63>   H       -0.08088388454889   2.15372207731747   -7.75977392460237
| 64>   H       -0.75841601295599   3.30566443489361   -6.57504900349653
| 65>   H       3.95113271381001   -0.34966745099301   -5.28981240242162
| 66>   H       5.98680989286537   -0.10504412000606   0.86739540537148
| 67>   H       7.33511646685103   -0.90438027062917   1.68992747722844
| 68>   H       5.41350468151117   -2.70098841990550   1.22397263514998
| 69>   H       9.39415266800356   -2.28934326852395   -0.27987971708212
| 70>   H       10.00108252742637   -2.70783909498566   -8.80919764002986
| 71>   H       8.79290112827011   -3.78413474431796   -8.71582521065891
| 72>   H       11.52604935482465   -3.58143666541257   -6.03139391166726
| 73>   C :   -0.60306292988360   0.33251663612880   -3.68223729426634
| 74>   C :   -1.48881143295596   0.89659283235758   -2.60976131541109
| 75>   C :   -1.00365554556704   0.87189661745404   -1.21426568569248
| 76>   C :   -1.72630313960671   1.52705072811286   -0.19214825752108
| 77>   C :   -1.31483883007530   1.47152966671393   1.12160978838174
| 78>   C :   -0.13141990807869   0.77328214587179   1.48251432997823
| 79>   C :   0.32540598856466   0.70306848220884   2.82415408503319
| 80>   C :   1.50589460434267   0.05016027270042   3.12922404440289
| 81>   C :   2.28240516221834   -0.55090847385668   2.11358411119493
| 82>   C :   1.86153949372688   -0.50893795423582   0.79152640120716
| 83>   C :   2.65526296137724   -1.09292369879020   -0.27462108770709
| 84>   C :   2.27050361075889   -1.01256645039902   -1.56912843096542
| 85>   C :   1.02834058880603   -0.37094676826210   -1.96354732040912
| 86>   C :   0.68868246223750   -0.23083336547217   -3.27867918834189
| 87>   C :   0.18506309834849   0.19487491900800   -0.90217067842960
| 88>   C :   0.63185698626814   0.14573494222996   0.44988112585141
| 89>   H :   -0.68624813386052   0.71712629283256   -4.69841052374440
| 90>   H :   -2.19740132283011   1.68737515034592   -2.86530150780920
| 91>   H :   -2.63773255176061   2.06098776929097   -0.45293649324165
| 92>   H :   -1.89615838184893   1.96107536657989   1.89952545658261
| 93>   H :   -0.26065476042473   1.17853996900514   3.60965382611384
| 94>   H :   3.21961310461212   -1.03174053978079   2.38039285481716
| 95>   H :   3.58283758650602   -1.58698782497577   -0.00021459706902
| 96>   H :   2.88621456267703   -1.44126175399224   -2.35657209397153
| 97>   H :   1.38713255955194   -0.52417795015041   -4.05684140033782
| 98>   O :   -1.78785673852912   -0.36215636314299   -3.22854845748921
| 99>   O :   1.99603281922826   -0.04547409959703   4.40209225264528
|100>   H :   1.38420774239225   0.40246834692798   5.00757518918786
|101> *
|102> 
|103>                          ****END OF INPUT****
================================================================================

                       ****************************
                       * Single Point Calculation *
                       ****************************

---------------------------------
CARTESIAN COORDINATES (ANGSTROEM)
---------------------------------
  C      8.842273   -5.508453   -6.387566
  C      8.983249   -4.278251   -5.487824
  C      9.645360   -3.049511   -6.147966
  C      8.764142   -2.368243   -7.234659
  C      7.270301   -2.554271   -6.891303
  C      7.023516   -2.800565   -5.408119
  O      7.706157   -3.940733   -4.909330
  O      7.391430   -1.617873   -4.714076
  C      6.942303   -1.538175   -3.354662
  C      8.137275   -1.799445   -2.420930
  C      8.007518   -1.135056   -1.051498
  C      7.880924    0.377722   -1.244032
  C      6.761741    0.728563   -2.198975
  C      6.301649   -0.170592   -3.151029
  C      5.179658    0.168884   -3.967148
  C      4.585819    1.441433   -3.874081
  C      5.100747    2.379716   -2.934527
  C      6.167991    2.018710   -2.094294
  O      6.675325    2.852757   -1.173997
  C      4.510011    3.705493   -2.819343
  O      4.937557    4.544075   -1.997737
  C      3.368242    4.058449   -3.705525
  C      2.836454    3.123790   -4.628053
  C      3.443089    1.774537   -4.738575
  O      3.005810    0.927202   -5.546770
  C      1.727959    3.529103   -5.427792
  C      1.214676    4.830420   -5.294249
  C      1.767456    5.725626   -4.381700
  C      2.839643    5.345753   -3.582466
  O      1.203720    2.634119   -6.292266
  C      0.136820    3.029600   -7.146860
  O      4.708934   -0.778543   -4.791392
  C      6.851758   -1.741771   -0.226278
  O      6.325304   -2.798812   -0.543359
  C      6.434302   -1.086835    1.085711
  O      5.513406   -1.897795    1.773205
  O      9.184920   -1.340069   -0.255242
  N      9.003918   -2.791738   -8.616415
  O     10.897698   -3.387862   -6.744349
  H      9.814800   -5.787650   -6.805683
  H      8.146295   -5.334561   -7.214319
  H      8.454254   -6.349164   -5.802947
  H      9.613754   -4.566322   -4.632569
  H      9.797205   -2.309876   -5.350316
  H      9.004162   -1.299638   -7.198543
  H      6.877918   -3.420181   -7.437991
  H      6.687749   -1.686388   -7.211423
  H      5.965726   -3.006287   -5.215101
  H      6.176475   -2.304378   -3.184688
  H      9.036174   -1.386771   -2.892390
  H      8.270676   -2.881759   -2.323898
  H      8.845433    0.737922   -1.627471
  H      7.733870    0.892991   -0.291042
  H      6.147560    3.698343   -1.243906
  H      0.375456    5.146372   -5.901789
  H      1.349991    6.725284   -4.296877
  H      3.282066    6.021220   -2.859787
  H      0.429703    3.864772   -7.795657
  H     -0.080884    2.153722   -7.759774
  H     -0.758416    3.305664   -6.575049
  H      3.951133   -0.349667   -5.289812
  H      5.986810   -0.105044    0.867395
  H      7.335116   -0.904380    1.689927
  H      5.413505   -2.700988    1.223973
  H      9.394153   -2.289343   -0.279880
  H     10.001083   -2.707839   -8.809198
  H      8.792901   -3.784135   -8.715825
  H     11.526049   -3.581437   -6.031394
  C     -0.603063    0.332517   -3.682237
  C     -1.488811    0.896593   -2.609761
  C     -1.003656    0.871897   -1.214266
  C     -1.726303    1.527051   -0.192148
  C     -1.314839    1.471530    1.121610
  C     -0.131420    0.773282    1.482514
  C      0.325406    0.703068    2.824154
  C      1.505895    0.050160    3.129224
  C      2.282405   -0.550908    2.113584
  C      1.861539   -0.508938    0.791526
  C      2.655263   -1.092924   -0.274621
  C      2.270504   -1.012566   -1.569128
  C      1.028341   -0.370947   -1.963547
  C      0.688682   -0.230833   -3.278679
  C      0.185063    0.194875   -0.902171
  C      0.631857    0.145735    0.449881
  H     -0.686248    0.717126   -4.698411
  H     -2.197401    1.687375   -2.865302
  H     -2.637733    2.060988   -0.452936
  H     -1.896158    1.961075    1.899525
  H     -0.260655    1.178540    3.609654
  H      3.219613   -1.031741    2.380393
  H      3.582838   -1.586988   -0.000215
  H      2.886215   -1.441262   -2.356572
  H      1.387133   -0.524178   -4.056841
  O     -1.787857   -0.362156   -3.228548
  O      1.996033   -0.045474    4.402092
  H      1.384208    0.402468    5.007575

----------------------------
CARTESIAN COORDINATES (A.U.)
----------------------------
  NO LB      ZA    FRAG     MASS         X           Y           Z
   0 C     6.0000    0    12.011   16.709474  -10.409468  -12.070751
   1 C     6.0000    0    12.011   16.975880   -8.084722  -10.370484
   2 C     6.0000    0    12.011   18.227089   -5.762741  -11.617972
   3 C     6.0000    0    12.011   16.561828   -4.475332  -13.671525
   4 C     6.0000    0    12.011   13.738878   -4.826872  -13.022674
   5 C     6.0000    0    12.011   13.272522   -5.292300  -10.219864
   6 O     8.0000    0    15.999   14.562526   -7.446907   -9.277290
   7 O     8.0000    0    15.999   13.967778   -3.057336   -8.908313
   8 C     6.0000    0    12.011   13.119052   -2.906729   -6.339392
   9 C     6.0000    0    12.011   15.377222   -3.400457   -4.574894
  10 C     6.0000    0    12.011   15.132017   -2.144945   -1.987043
  11 C     6.0000    0    12.011   14.892789    0.713790   -2.350879
  12 C     6.0000    0    12.011   12.777838    1.376785   -4.155460
  13 C     6.0000    0    12.011   11.908390   -0.322372   -5.954581
  14 C     6.0000    0    12.011    9.788135    0.319145   -7.496823
  15 C     6.0000    0    12.011    8.665941    2.723914   -7.320951
  16 C     6.0000    0    12.011    9.639015    4.497011   -5.545453
  17 C     6.0000    0    12.011   11.655813    3.814810   -3.957642
  18 O     8.0000    0    15.999   12.614536    5.390930   -2.218534
  19 C     6.0000    0    12.011    8.522686    7.002366   -5.327787
  20 O     8.0000    0    15.999    9.330631    8.587057   -3.775176
  21 C     6.0000    0    12.011    6.365055    7.669357   -7.002427
  22 C     6.0000    0    12.011    5.360122    5.903108   -8.745752
  23 C     6.0000    0    12.011    6.506495    3.353389   -8.954609
  24 O     8.0000    0    15.999    5.680158    1.752158  -10.481877
  25 C     6.0000    0    12.011    3.265369    6.669039  -10.257040
  26 C     6.0000    0    12.011    2.295406    9.128171  -10.004680
  27 C     6.0000    0    12.011    3.340008   10.819865   -8.280212
  28 C     6.0000    0    12.011    5.366148   10.102009   -6.769879
  29 O     8.0000    0    15.999    2.274700    4.977764  -11.890659
  30 C     6.0000    0    12.011    0.258553    5.725114  -13.505609
  31 O     8.0000    0    15.999    8.898596   -1.471233   -9.054419
  32 C     6.0000    0    12.011   12.947947   -3.291471   -0.427604
  33 O     8.0000    0    15.999   11.953093   -5.288989   -1.026800
  34 C     6.0000    0    12.011   12.159069   -2.053821    2.051696
  35 O     8.0000    0    15.999   10.418828   -3.586313    3.350871
  36 O     8.0000    0    15.999   17.356984   -2.532363   -0.482337
  37 N     7.0000    0    14.007   17.014939   -5.275620  -16.282665
  38 O     8.0000    0    15.999   20.593665   -6.402132  -12.744973
  39 H     1.0000    0     1.008   18.547284  -10.937073  -12.860877
  40 H     1.0000    0     1.008   15.394267  -10.080860  -13.633088
  41 H     1.0000    0     1.008   15.976225  -11.998181  -10.965981
  42 H     1.0000    0     1.008   18.167362   -8.629098   -8.754287
  43 H     1.0000    0     1.008   18.514035   -4.365032  -10.110633
  44 H     1.0000    0     1.008   17.015401   -2.455960  -13.603275
  45 H     1.0000    0     1.008   12.997381   -6.463205  -14.055765
  46 H     1.0000    0     1.008   12.638015   -3.186811  -13.627615
  47 H     1.0000    0     1.008   11.273588   -5.681060   -9.855112
  48 H     1.0000    0     1.008   11.671846   -4.354644   -6.018189
  49 H     1.0000    0     1.008   17.075894   -2.620617   -5.465826
  50 H     1.0000    0     1.008   15.629312   -5.445735   -4.391531
  51 H     1.0000    0     1.008   16.715447    1.394470   -3.075474
  52 H     1.0000    0     1.008   14.614897    1.687508   -0.549990
  53 H     1.0000    0     1.008   11.617205    6.988855   -2.350641
  54 H     1.0000    0     1.008    0.709510    9.725235  -11.152765
  55 H     1.0000    0     1.008    2.551113   12.708945   -8.119921
  56 H     1.0000    0     1.008    6.202206   11.378456   -5.404214
  57 H     1.0000    0     1.008    0.812020    7.303361  -14.731657
  58 H     1.0000    0     1.008   -0.152848    4.069945  -14.663848
  59 H     1.0000    0     1.008   -1.433199    6.246800  -12.425042
  60 H     1.0000    0     1.008    7.466559   -0.660776   -9.996297
  61 H     1.0000    0     1.008   11.313431   -0.198505    1.639140
  62 H     1.0000    0     1.008   13.861361   -1.709031    3.193500
  63 H     1.0000    0     1.008   10.230041   -5.104128    2.312973
  64 H     1.0000    0     1.008   17.752376   -4.326232   -0.528896
  65 H     1.0000    0     1.008   18.899307   -5.117074  -16.646971
  66 H     1.0000    0     1.008   16.616175   -7.150978  -16.470523
  67 H     1.0000    0     1.008   21.781077   -6.767934  -11.397683
  68 C     0.0000    0     0.000   -1.139624    0.628365   -6.958420
  69 C     0.0000    0     0.000   -2.813446    1.694315   -4.931734
  70 C     0.0000    0     0.000   -1.896634    1.647646   -2.294630
  71 C     0.0000    0     0.000   -3.262240    2.885708   -0.363108
  72 C     0.0000    0     0.000   -2.484685    2.780788    2.119535
  73 C     0.0000    0     0.000   -0.248348    1.461291    2.801546
  74 C     0.0000    0     0.000    0.614928    1.328607    5.336878
  75 C     0.0000    0     0.000    2.845728    0.094789    5.913376
  76 C     0.0000    0     0.000    4.313121   -1.041066    3.994095
  77 C     0.0000    0     0.000    3.517800   -0.961753    1.495768
  78 C     0.0000    0     0.000    5.017720   -2.065326   -0.518959
  79 C     0.0000    0     0.000    4.290630   -1.913473   -2.965223
  80 C     0.0000    0     0.000    1.943282   -0.700988   -3.710567
  81 C     0.0000    0     0.000    1.301421   -0.436212   -6.195806
  82 C     0.0000    0     0.000    0.349719    0.368260   -1.704856
  83 C     0.0000    0     0.000    1.194037    0.275399    0.850152
  84 H     0.0000    0     0.000   -1.296821    1.355172   -8.878709
  85 H     0.0000    0     0.000   -4.152487    3.188677   -5.414635
  86 H     0.0000    0     0.000   -4.984592    3.894702   -0.855926
  87 H     0.0000    0     0.000   -3.583220    3.705895    3.589583
  88 H     0.0000    0     0.000   -0.492566    2.227118    6.821257
  89 H     0.0000    0     0.000    6.084187   -1.949707    4.498291
  90 H     0.0000    0     0.000    6.770582   -2.998972   -0.000406
  91 H     0.0000    0     0.000    5.454155   -2.723590   -4.453276
  92 H     0.0000    0     0.000    2.621301   -0.990553   -7.666319
  93 O     0.0000    0     0.000   -3.378560   -0.684376   -6.101072
  94 O     0.0000    0     0.000    3.771955   -0.085934    8.318749
  95 H     0.0000    0     0.000    2.615774    0.760555    9.462946

--------------------------------
INTERNAL COORDINATES (ANGSTROEM)
--------------------------------
 C      0   0   0     0.000000000000     0.00000000     0.00000000
 C      1   0   0     1.530623523569     0.00000000     0.00000000
 C      2   1   0     1.544014108012   115.32697065     0.00000000
 C      3   2   1     1.556140695924   113.83671033    69.93426995
 C      4   3   2     1.544040409462   109.86695879    30.24297245
 C      5   4   3     1.523612798160   113.11999929    23.65366328
 O      6   5   4     1.419427164191   113.20533123   301.77313592
 O      6   5   4     1.419794739632   107.41158900    65.79040936
 C      8   6   5     1.433901683463   115.37710151   165.97285495
 C      9   8   6     1.538855005974   108.81953057   104.77879308
 C     10   9   8     1.527610270669   113.83727730   152.83469426
 C     11  10   9     1.530226055367   108.91684844   300.52172244
 C     12  11  10     1.512474260384   111.71423164    53.54554011
 C     13  12  11     1.388009634796   121.87615597   336.24098699
 C     14  13  12     1.428340689656   119.88964699   175.51654864
 C     15  14  13     1.407369172879   120.56860565     4.00236253
 C     16  15  14     1.424179032692   119.12889715   358.71419644
 C     17  16  15     1.405462724234   119.98207528   358.53105367
 O     18  17  16     1.341628880609   122.51729885   181.31818324
 C     17  16  15     1.455994751319   120.35764245   179.76891186
 O     20  17  16     1.249420927049   121.62339238   179.55583344
 C     20  17  16     1.487794466580   118.70244388   359.65228525
 C     22  20  17     1.416842270126   121.28988564     1.35777962
 C     16  15  14     1.471101750574   119.58037513   179.13652635
 O     24  16  15     1.249947194801   119.88211751     0.12713616
 C     23  22  20     1.425700917985   118.00344568   178.99919554
 C     26  23  22     1.405246365255   119.60061351     0.90912352
 C     27  26  23     1.392732775523   120.83214763   359.41391604
 C     28  27  26     1.390202848163   120.47503865   359.91242635
 O     26  23  22     1.350236813152   118.20154061   181.09336741
 C     30  26  23     1.423028526147   119.43084551   182.86579544
 O     15  14  13     1.341110902856   117.32113327   185.42369985
 C     11  10   9     1.544302967762   111.82260572    66.36338575
 O     33  11  10     1.222714148090   121.55385269    14.34467632
 C     33  11  10     1.524639669157   119.73468883   188.55793611
 O     35  33  11     1.406539360423   110.62222755   188.85069775
 O     11  10   9     1.436081262231   111.42743153   183.71354855
 N      4   3   2     1.464953895531   116.06694834   265.40557204
 O      3   2   1     1.427762180075   111.47744949   307.48324843
 H      1   2   3     1.094797508131   110.34355559    54.67899649
 H      1   2   3     1.094597447053   112.01610876   293.71772147
 H      1   2   3     1.095049244122   109.62489773   174.53309513
 H      2   1   3     1.100900498624   107.40378477   240.65044538
 H      3   2   1     1.098345416077   106.54035858   187.49223689
 H      4   3   2     1.095824557825   106.25237445   147.76204426
 H      5   4   3     1.096646069287   109.29580523   264.00150820
 H      5   4   3     1.093190012914   110.78105660   146.50177470
 H      6   5   4     1.094759426973   111.00894251   184.50864083
 H      9   8   6     1.096563610810   109.07867738   345.67648838
 H     10   9   8     1.095715924234   108.18135117    34.10622139
 H     10   9   8     1.094812659500   108.43565649   277.10726320
 H     12  11  10     1.098657071930   107.18160266   292.14063189
 H     12  11  10     1.093305348550   111.55386204   177.08525727
 H     19  18  17     0.999218246896   106.16255308     0.00000000
 H     27  26  23     1.083153664606   119.98824476   179.73208043
 H     28  27  26     1.086641003878   119.33936309   180.13680678
 H     29  28  27     1.083631691233   121.86788146   180.48570202
 H     31  30  26     1.097374316334   111.49804276    59.63588904
 H     31  30  26     1.090972105533   105.30036231   178.17917092
 H     31  30  26     1.097555482151   111.62692168   296.77167903
 H     32  15  14     1.003304752776   105.57185465   181.51018622
 H     35  33  11     1.100829232398   108.89056699    67.62692626
 H     35  33  11     1.099924312760   108.64617283   311.31058267
 H     36  35  33     0.978138907719   105.41785472     2.16332963
 H     37  11  10     0.972372020209   107.56189482   310.45168445
 H     38   4   3     1.019088252193   108.34766468   307.94505321
 H     38   4   3     1.019442092389   109.84707734    62.50682465
 H     39   3   2     0.969846054212   107.97002730   290.38091580
 C     30  26  23     3.920980225649    98.15263226    73.41474094
 C     69  30  26     1.500978711064   121.79967596    48.97979417
 C     70  69  30     1.477631276964   118.34407616   251.52844265
 C     71  70  69     1.412858977696   120.50012137   172.61701964
 C     72  71  70     1.377804655766   121.22348596   177.53692110
 C     73  72  71     1.420662533273   120.71732752     1.30686506
 C     74  73  72     1.419019764046   122.18642611   179.60696556
 C     75  74  73     1.383079962307   120.44279069   182.11304375
 C     76  75  74     1.412719631953   120.75838194     0.39365516
 C     77  76  75     1.388065569046   120.34564998   359.19686786
 C     78  77  76     1.451794324641   121.43385591   178.62282398
 C     79  78  77     1.352865960473   121.55424842   182.34608320
 C     80  79  78     1.452656549210   121.95350336   358.34595779
 C     81  80  79     1.365493038663   121.30030316   176.28426636
 C     71  70  69     1.403144215011   119.75447179   352.74017991
 C     83  71  70     1.424810021392   119.56224097   181.53613682
 H     69  30  26     1.089702894599    37.55726661   146.84347113
 H     70  69  30     1.092125036983   119.19624086    43.42275664
 H     72  71  70     1.088027040644   118.85664875   359.15881280
 H     73  72  71     1.087538597184   120.28354812   181.50937879
 H     75  74  73     1.089288841171   119.14268001     1.51556039
 H     77  76  75     1.086620959019   119.06644888   178.24316127
 H     79  78  77     1.086182750770   117.66678358     1.41287598
 H     80  79  78     1.087633744439   120.55419303   178.95500705
 H     82  81  80     1.086011055182   120.15984135   354.77243268
 O     70  69  30     1.434146142888    58.99679680   144.83206324
 O     76  75  74     1.367323984435   122.97760507   179.80632224
 H     95  76  75     0.970356607897   108.81838175     0.39017511

---------------------------
INTERNAL COORDINATES (A.U.)
---------------------------
 C      0   0   0     0.000000000000     0.00000000     0.00000000
 C      1   0   0     2.892459273682     0.00000000     0.00000000
 C      2   1   0     2.917763811054   115.32697065     0.00000000
 C      3   2   1     2.940679741146   113.83671033    69.93426995
 C      4   3   2     2.917813513592   109.86695879    30.24297245
 C      5   4   3     2.879210922660   113.11999929    23.65366328
 O      6   5   4     2.682328607369   113.20533123   301.77313592
 O      6   5   4     2.683023224286   107.41158900    65.79040936
 C      8   6   5     2.709681484714   115.37710151   165.97285495
 C      9   8   6     2.908014521105   108.81953057   104.77879308
 C     10   9   8     2.886765050930   113.83727730   152.83469426
 C     11  10   9     2.891708167633   108.91684844   300.52172244
 C     12  11  10     2.858162136730   111.71423164    53.54554011
 C     13  12  11     2.622958081008   121.87615597   336.24098699
 C     14  13  12     2.699172729386   119.88964699   175.51654864
 C     15  14  13     2.659542306065   120.56860565     4.00236253
 C     16  15  14     2.691308337462   119.12889715   358.71419644
 C     17  16  15     2.655939640238   119.98207528   358.53105367
 O     18  17  16     2.535311157710   122.51729885   181.31818324
 C     17  16  15     2.751431332419   120.35764245   179.76891186
 O     20  17  16     2.361063378113   121.62339238   179.55583344
 C     20  17  16     2.811524085400   118.70244388   359.65228525
 C     22  20  17     2.677443865501   121.28988564     1.35777962
 C     16  15  14     2.779979423716   119.58037513   179.13652635
 O     24  16  15     2.362057880036   119.88211751     0.12713616
 C     23  22  20     2.694184283872   118.00344568   178.99919554
 C     26  23  22     2.655530781021   119.60061351     0.90912352
 C     27  26  23     2.631883523474   120.83214763   359.41391604
 C     28  27  26     2.627102653626   120.47503865   359.91242635
 O     26  23  22     2.551577792796   118.20154061   181.09336741
 C     30  26  23     2.689134195175   119.43084551   182.86579544
 O     15  14  13     2.534332321614   117.32113327   185.42369985
 C     11  10   9     2.918309676872   111.82260572    66.36338575
 O     33  11  10     2.310594879961   121.55385269    14.34467632
 C     33  11  10     2.881151427619   119.73468883   188.55793611
 O     35  33  11     2.657974187780   110.62222755   188.85069775
 O     11  10   9     2.713800291673   111.42743153   183.71354855
 N      4   3   2     2.768361661375   116.06694834   265.40557204
 O      3   2   1     2.698079504711   111.47744949   307.48324843
 H      1   2   3     2.068867462467   110.34355559    54.67899649
 H      1   2   3     2.068489401819   112.01610876   293.71772147
 H      1   2   3     2.069343174548   109.62489773   174.53309513
 H      2   1   3     2.080400443096   107.40378477   240.65044538
 H      3   2   1     2.075572036834   106.54035858   187.49223689
 H      4   3   2     2.070808305114   106.25237445   147.76204426
 H      5   4   3     2.072360736795   109.29580523   264.00150820
 H      5   4   3     2.065829736744   110.78105660   146.50177470
 H      6   5   4     2.068795499508   111.00894251   184.50864083
 H      9   8   6     2.072204912855   109.07867738   345.67648838
 H     10   9   8     2.070603017379   108.18135117    34.10622139
 H     10   9   8     2.068896094404   108.43565649   277.10726320
 H     12  11  10     2.076160981043   107.18160266   292.14063189
 H     12  11  10     2.066047689510   111.55386204   177.08525727
 H     19  18  17     1.888248834651   106.16255308     0.00000000
 H     27  26  23     2.046863787059   119.98824476   179.73208043
 H     28  27  26     2.053453903218   119.33936309   180.13680678
 H     29  28  27     2.047767126469   121.86788146   180.48570202
 H     31  30  26     2.073736924271   111.49804276    59.63588904
 H     31  30  26     2.061638499204   105.30036231   178.17917092
 H     31  30  26     2.074079278048   111.62692168   296.77167903
 H     32  15  14     1.895971211608   105.57185465   181.51018622
 H     35  33  11     2.080265769448   108.89056699    67.62692626
 H     35  33  11     2.078555719159   108.64617283   311.31058267
 H     36  35  33     1.848414656523   105.41785472     2.16332963
 H     37  11  10     1.837516818483   107.56189482   310.45168445
 H     38   4   3     1.925797702942   108.34766468   307.94505321
 H     38   4   3     1.926466364006   109.84707734    62.50682465
 H     39   3   2     1.832743434524   107.97002730   290.38091580
 C     30  26  23     7.409578802996    98.15263226    73.41474094
 C     69  30  26     2.836438696758   121.79967596    48.97979417
 C     70  69  30     2.792318440378   118.34407616   251.52844265
 C     71  70  69     2.669916533697   120.50012137   172.61701964
 C     72  71  70     2.603673465440   121.22348596   177.53692110
 C     73  72  71     2.684663116610   120.71732752     1.30686506
 C     74  73  72     2.681558732668   122.18642611   179.60696556
 C     75  74  73     2.613642350074   120.44279069   182.11304375
 C     76  75  74     2.669653208406   120.75838194     0.39365516
 C     77  76  75     2.623063781422   120.34564998   359.19686786
 C     78  77  76     2.743493676353   121.43385591   178.62282398
 C     79  78  77     2.556546161199   121.55424842   182.34608320
 C     80  79  78     2.745123044654   121.95350336   358.34595779
 C     81  80  79     2.580407880849   121.30030316   176.28426636
 C     71  70  69     2.651558292766   119.75447179   352.74017991
 C     83  71  70     2.692500733298   119.56224097   181.53613682
 H     69  30  26     2.059240038134    37.55726661   146.84347113
 H     70  69  30     2.063817223897   119.19624086    43.42275664
 H     72  71  70     2.056073133117   118.85664875   359.15881280
 H     73  72  71     2.055150108746   120.28354812   181.50937879
 H     75  74  73     2.058457590550   119.14268001     1.51556039
 H     77  76  75     2.053416023925   119.06644888   178.24316127
 H     79  78  77     2.052587930345   117.66678358     1.41287598
 H     80  79  78     2.055329911002   120.55419303   178.95500705
 H     82  81  80     2.052263472704   120.15984135   354.77243268
 O     70  69  30     2.710143446077    58.99679680   144.83206324
 O     76  75  74     2.583867866923   122.97760507   179.80632224
 H     95  76  75     1.833708241165   108.81838175     0.39017511

---------------------
BASIS SET INFORMATION
---------------------
There are 4 groups of distinct atoms

 Group   1 Type C   : 10s4p1d contracted to 3s2p1d pattern {631/31/1}
 Group   2 Type O   : 10s4p1d contracted to 3s2p1d pattern {631/31/1}
 Group   3 Type N   : 10s4p1d contracted to 3s2p1d pattern {631/31/1}
 Group   4 Type H   : 4s contracted to 2s pattern {31}

Atom   0C    basis set group =>   1
Atom   1C    basis set group =>   1
Atom   2C    basis set group =>   1
Atom   3C    basis set group =>   1
Atom   4C    basis set group =>   1
Atom   5C    basis set group =>   1
Atom   6O    basis set group =>   2
Atom   7O    basis set group =>   2
Atom   8C    basis set group =>   1
Atom   9C    basis set group =>   1
Atom  10C    basis set group =>   1
Atom  11C    basis set group =>   1
Atom  12C    basis set group =>   1
Atom  13C    basis set group =>   1
Atom  14C    basis set group =>   1
Atom  15C    basis set group =>   1
Atom  16C    basis set group =>   1
Atom  17C    basis set group =>   1
Atom  18O    basis set group =>   2
Atom  19C    basis set group =>   1
Atom  20O    basis set group =>   2
Atom  21C    basis set group =>   1
Atom  22C    basis set group =>   1
Atom  23C    basis set group =>   1
Atom  24O    basis set group =>   2
Atom  25C    basis set group =>   1
Atom  26C    basis set group =>   1
Atom  27C    basis set group =>   1
Atom  28C    basis set group =>   1
Atom  29O    basis set group =>   2
Atom  30C    basis set group =>   1
Atom  31O    basis set group =>   2
Atom  32C    basis set group =>   1
Atom  33O    basis set group =>   2
Atom  34C    basis set group =>   1
Atom  35O    basis set group =>   2
Atom  36O    basis set group =>   2
Atom  37N    basis set group =>   3
Atom  38O    basis set group =>   2
Atom  39H    basis set group =>   4
Atom  40H    basis set group =>   4
Atom  41H    basis set group =>   4
Atom  42H    basis set group =>   4
Atom  43H    basis set group =>   4
Atom  44H    basis set group =>   4
Atom  45H    basis set group =>   4
Atom  46H    basis set group =>   4
Atom  47H    basis set group =>   4
Atom  48H    basis set group =>   4
Atom  49H    basis set group =>   4
Atom  50H    basis set group =>   4
Atom  51H    basis set group =>   4
Atom  52H    basis set group =>   4
Atom  53H    basis set group =>   4
Atom  54H    basis set group =>   4
Atom  55H    basis set group =>   4
Atom  56H    basis set group =>   4
Atom  57H    basis set group =>   4
Atom  58H    basis set group =>   4
Atom  59H    basis set group =>   4
Atom  60H    basis set group =>   4
Atom  61H    basis set group =>   4
Atom  62H    basis set group =>   4
Atom  63H    basis set group =>   4
Atom  64H    basis set group =>   4
Atom  65H    basis set group =>   4
Atom  66H    basis set group =>   4
Atom  67H    basis set group =>   4
Atom  68C    basis set group =>   1
Atom  69C    basis set group =>   1
Atom  70C    basis set group =>   1
Atom  71C    basis set group =>   1
Atom  72C    basis set group =>   1
Atom  73C    basis set group =>   1
Atom  74C    basis set group =>   1
Atom  75C    basis set group =>   1
Atom  76C    basis set group =>   1
Atom  77C    basis set group =>   1
Atom  78C    basis set group =>   1
Atom  79C    basis set group =>   1
Atom  80C    basis set group =>   1
Atom  81C    basis set group =>   1
Atom  82C    basis set group =>   1
Atom  83C    basis set group =>   1
Atom  84H    basis set group =>   4
Atom  85H    basis set group =>   4
Atom  86H    basis set group =>   4
Atom  87H    basis set group =>   4
Atom  88H    basis set group =>   4
Atom  89H    basis set group =>   4
Atom  90H    basis set group =>   4
Atom  91H    basis set group =>   4
Atom  92H    basis set group =>   4
Atom  93O    basis set group =>   2
Atom  94O    basis set group =>   2
Atom  95H    basis set group =>   4
---------------------------------
AUXILIARY/J BASIS SET INFORMATION
---------------------------------
There are 4 groups of distinct atoms

 Group   1 Type C   : 12s5p4d2f1g contracted to 6s4p3d1f1g pattern {711111/2111/211/2/1}
 Group   2 Type O   : 12s5p4d2f1g contracted to 6s4p3d1f1g pattern {711111/2111/211/2/1}
 Group   3 Type N   : 12s5p4d2f1g contracted to 6s4p3d1f1g pattern {711111/2111/211/2/1}
 Group   4 Type H   : 5s2p1d contracted to 3s1p1d pattern {311/2/1}

Atom   0C    basis set group =>   1
Atom   1C    basis set group =>   1
Atom   2C    basis set group =>   1
Atom   3C    basis set group =>   1
Atom   4C    basis set group =>   1
Atom   5C    basis set group =>   1
Atom   6O    basis set group =>   2
Atom   7O    basis set group =>   2
Atom   8C    basis set group =>   1
Atom   9C    basis set group =>   1
Atom  10C    basis set group =>   1
Atom  11C    basis set group =>   1
Atom  12C    basis set group =>   1
Atom  13C    basis set group =>   1
Atom  14C    basis set group =>   1
Atom  15C    basis set group =>   1
Atom  16C    basis set group =>   1
Atom  17C    basis set group =>   1
Atom  18O    basis set group =>   2
Atom  19C    basis set group =>   1
Atom  20O    basis set group =>   2
Atom  21C    basis set group =>   1
Atom  22C    basis set group =>   1
Atom  23C    basis set group =>   1
Atom  24O    basis set group =>   2
Atom  25C    basis set group =>   1
Atom  26C    basis set group =>   1
Atom  27C    basis set group =>   1
Atom  28C    basis set group =>   1
Atom  29O    basis set group =>   2
Atom  30C    basis set group =>   1
Atom  31O    basis set group =>   2
Atom  32C    basis set group =>   1
Atom  33O    basis set group =>   2
Atom  34C    basis set group =>   1
Atom  35O    basis set group =>   2
Atom  36O    basis set group =>   2
Atom  37N    basis set group =>   3
Atom  38O    basis set group =>   2
Atom  39H    basis set group =>   4
Atom  40H    basis set group =>   4
Atom  41H    basis set group =>   4
Atom  42H    basis set group =>   4
Atom  43H    basis set group =>   4
Atom  44H    basis set group =>   4
Atom  45H    basis set group =>   4
Atom  46H    basis set group =>   4
Atom  47H    basis set group =>   4
Atom  48H    basis set group =>   4
Atom  49H    basis set group =>   4
Atom  50H    basis set group =>   4
Atom  51H    basis set group =>   4
Atom  52H    basis set group =>   4
Atom  53H    basis set group =>   4
Atom  54H    basis set group =>   4
Atom  55H    basis set group =>   4
Atom  56H    basis set group =>   4
Atom  57H    basis set group =>   4
Atom  58H    basis set group =>   4
Atom  59H    basis set group =>   4
Atom  60H    basis set group =>   4
Atom  61H    basis set group =>   4
Atom  62H    basis set group =>   4
Atom  63H    basis set group =>   4
Atom  64H    basis set group =>   4
Atom  65H    basis set group =>   4
Atom  66H    basis set group =>   4
Atom  67H    basis set group =>   4
Atom  68C    basis set group =>   1
Atom  69C    basis set group =>   1
Atom  70C    basis set group =>   1
Atom  71C    basis set group =>   1
Atom  72C    basis set group =>   1
Atom  73C    basis set group =>   1
Atom  74C    basis set group =>   1
Atom  75C    basis set group =>   1
Atom  76C    basis set group =>   1
Atom  77C    basis set group =>   1
Atom  78C    basis set group =>   1
Atom  79C    basis set group =>   1
Atom  80C    basis set group =>   1
Atom  81C    basis set group =>   1
Atom  82C    basis set group =>   1
Atom  83C    basis set group =>   1
Atom  84H    basis set group =>   4
Atom  85H    basis set group =>   4
Atom  86H    basis set group =>   4
Atom  87H    basis set group =>   4
Atom  88H    basis set group =>   4
Atom  89H    basis set group =>   4
Atom  90H    basis set group =>   4
Atom  91H    basis set group =>   4
Atom  92H    basis set group =>   4
Atom  93O    basis set group =>   2
Atom  94O    basis set group =>   2
Atom  95H    basis set group =>   4
------------------------------------------------------------------------------
                             ORCA STARTUP CALCULATIONS
                           -- RI-GTO INTEGRALS CHOSEN --
------------------------------------------------------------------------------
------------------------------------------------------------------------------
                   ___                                                        
                  /   \      - P O W E R E D   B Y -                         
                 /     \                                                     
                 |  |  |   _    _      __       _____    __    __             
                 |  |  |  | |  | |    /  \     |  _  \  |  |  /  |          
                  \  \/   | |  | |   /    \    | | | |  |  | /  /          
                 / \  \   | |__| |  /  /\  \   | |_| |  |  |/  /          
                |  |  |   |  __  | /  /__\  \  |    /   |      \           
                |  |  |   | |  | | |   __   |  |    \   |  |\   \          
                \     /   | |  | | |  |  |  |  | |\  \  |  | \   \       
                 \___/    |_|  |_| |__|  |__|  |_| \__\ |__|  \__/        
                                                                              
                      - O R C A' S   B I G   F R I E N D -                    
                                      &                                       
                       - I N T E G R A L  F E E D E R -                       
                                                                              
 v1 FN, 2020, v2 2021, v3 2022-2024                                           
------------------------------------------------------------------------------


----------------------
SHARK INTEGRAL PACKAGE
----------------------

Number of atoms                             ...     96
Number of basis functions                   ...    876
Number of shells                            ...    420
Maximum angular momentum                    ...      2
Integral batch strategy                     ... SHARK/LIBINT Hybrid
RI-J (if used) integral strategy            ... SPLIT-RIJ (Revised 2003 algorithm where possible)
Printlevel                                  ...      1
Contraction scheme used                     ... SEGMENTED contraction
Prescreening option                         ... SCHWARTZ
   Thresh                                   ... 1.000e-10
   Tcut                                     ... 1.000e-11
   Tpresel                                  ... 1.000e-11 
Coulomb Range Separation                    ... NOT USED
Exchange Range Separation                   ... NOT USED
Multipole approximations                    ... NOT USED
Finite Nucleus Model                        ... NOT USED
CABS basis                                  ... NOT available
Auxiliary Coulomb fitting basis             ... AVAILABLE
   # of basis functions in Aux-J            ...   3222
   # of shells in Aux-J                     ...   1050
   Maximum angular momentum in Aux-J        ...      4
Auxiliary J/K fitting basis                 ... NOT available
Auxiliary Correlation fitting basis         ... NOT available
Auxiliary 'external' fitting basis          ... NOT available

Checking pre-screening integrals            ... done (  0.0 sec) Dimension = 420
   => SHARK Basis and OBASIS are compatible. Storing Pre-screening
Shell pair information
Shell pair cut-off parameter TPreSel        ...   1.0e-11
Total number of shell pairs                 ...     88410
Shell pairs after pre-screening             ...     38134
Total number of primitive shell pairs       ...    512880
Primitive shell pairs kept                  ...    105885
          la=0 lb=0:  12245 shell pairs
          la=1 lb=0:  13737 shell pairs
          la=1 lb=1:   3883 shell pairs
          la=2 lb=0:   4877 shell pairs
          la=2 lb=1:   2920 shell pairs
          la=2 lb=2:    472 shell pairs

Checking whether 4 symmetric matrices of dimension 876 fit in memory
:Max Core in MB      =    800.00
 MB in use           =     43.04
 MB left             =    756.96
 MB needed           =     11.72
 Data fit in memory  = YES
Calculating RI/J V-Matrix + Cholesky decomp.... done (  1.5 sec)
Calculating Nuclear repulsion               ... done (  0.0 sec) ENN=   4626.564965939451 Eh

Diagonalization of the overlap matrix:
Smallest eigenvalue                        ... 1.808e-04
Time for diagonalization                   ...    0.177 sec
Threshold for overlap eigenvalues          ... 1.000e-07
Number of eigenvalues below threshold      ... 0
Time for construction of square roots      ...    0.125 sec
Total time needed                          ...    0.307 sec

-------------------
DFT GRID GENERATION
-------------------

General Integration Accuracy     IntAcc      ... 4.388
Radial Grid Type                 RadialGrid  ... OptM3 with GC (2021)
Angular Grid (max. ang.)         AngularGrid ... 4 (Lebedev-302)
Angular grid pruning method      GridPruning ... 4 (adaptive)
Weight generation scheme         WeightScheme... mBecke (2022)
Basis function cutoff            BFCut       ... 1.0000e-10
Integration weight cutoff        WCut        ... 1.0000e-14
Partially contracted basis set               ... off
Rotationally invariant grid construction     ... off
Angular grids for H and He will be reduced by one unit

Total number of grid points                  ...   461288
Total number of batches                      ...     7258
Average number of points per batch           ...       63
Average number of grid points per atom       ...     4805

--------------------
COSX GRID GENERATION
--------------------

GRIDX 1
-------
General Integration Accuracy     IntAcc      ... 3.816
Radial Grid Type                 RadialGrid  ... OptM3 with GC (2021)
Angular Grid (max. ang.)         AngularGrid ... 1 (Lebedev-50)
Angular grid pruning method      GridPruning ... 4 (adaptive)
Weight generation scheme         WeightScheme... mBecke (2022)
Basis function cutoff            BFCut       ... 1.0000e-10
Integration weight cutoff        WCut        ... 1.0000e-14
Partially contracted basis set               ... on
Rotationally invariant grid construction     ... off
Angular grids for H and He will be reduced by one unit

Total number of grid points                  ...    58391
Total number of batches                      ...      508
Average number of points per batch           ...      114
Average number of grid points per atom       ...      608
UseSFitting                                  ... on

GRIDX 2
-------
General Integration Accuracy     IntAcc      ... 4.020
Radial Grid Type                 RadialGrid  ... OptM3 with GC (2021)
Angular Grid (max. ang.)         AngularGrid ... 2 (Lebedev-110)
Angular grid pruning method      GridPruning ... 4 (adaptive)
Weight generation scheme         WeightScheme... mBecke (2022)
Basis function cutoff            BFCut       ... 1.0000e-10
Integration weight cutoff        WCut        ... 1.0000e-14
Partially contracted basis set               ... on
Rotationally invariant grid construction     ... off
Angular grids for H and He will be reduced by one unit

Total number of grid points                  ...   125981
Total number of batches                      ...     1033
Average number of points per batch           ...      121
Average number of grid points per atom       ...     1312
UseSFitting                                  ... on

GRIDX 3
-------
General Integration Accuracy     IntAcc      ... 4.338
Radial Grid Type                 RadialGrid  ... OptM3 with GC (2021)
Angular Grid (max. ang.)         AngularGrid ... 3 (Lebedev-194)
Angular grid pruning method      GridPruning ... 4 (adaptive)
Weight generation scheme         WeightScheme... mBecke (2022)
Basis function cutoff            BFCut       ... 1.0000e-10
Integration weight cutoff        WCut        ... 1.0000e-14
Partially contracted basis set               ... on
Rotationally invariant grid construction     ... off
Angular grids for H and He will be reduced by one unit

Total number of grid points                  ...   274228
Total number of batches                      ...     2192
Average number of points per batch           ...      125
Average number of grid points per atom       ...     2857
UseSFitting                                  ... on
Grids setup in  26.8 sec
Initializing property integral containers    ... done (  0.0 sec)

SHARK setup successfully completed in  30.6 seconds

Maximum memory used throughout the entire STARTUP-calculation: 206.9 MB
-------------------------------------------------------------------------------
                                 ORCA GUESS
                   Start orbitals & Density for SCF / CASSCF
-------------------------------------------------------------------------------

------------
SCF SETTINGS
------------
Hamiltonian:
 Density Functional     Method          .... DFT(GTOs)
 Exchange Functional    Exchange        .... B88
   X-Alpha parameter    XAlpha          ....  0.666667
   Becke's b parameter  XBeta           ....  0.004200
 Correlation Functional Correlation     .... LYP
 LDA part of GGA corr.  LDAOpt          .... VWN-5
 Gradients option       PostSCFGGA      .... off
 Hybrid DFT is turned on
   Fraction HF Exchange ScalHFX         ....  0.200000
   Scaling of DF-GGA-X  ScalDFX         ....  0.720000
   Scaling of DF-GGA-C  ScalDFC         ....  0.810000
   Scaling of DF-LDA-C  ScalLDAC        ....  1.000000
   Perturbative correction              ....  0.000000
   NL short-range parameter             ....  4.800000
 RI-approximation to the Coulomb term is turned on
   Number of AuxJ basis functions       .... 3222
   RIJ-COSX (HFX calculated with COS-X)).... on


General Settings:
 Integral files         IntName         .... doxorubicin_dimerbasis_doxorubicin
 Hartree-Fock type      HFTyp           .... RHF
 Total Charge           Charge          ....    0
 Multiplicity           Mult            ....    1
 Number of Electrons    NEL             ....  286
 Basis Dimension        Dim             ....  876
 Nuclear Repulsion      ENuc            ....   4626.5649659395 Eh

Convergence Acceleration:
 AO-DIIS                CNVDIIS         .... on
   Start iteration      DIISMaxIt       ....    12
   Startup error        DIISStart       ....  0.200000
   # of expansion vecs  DIISMaxEq       ....     5
   Bias factor          DIISBfac        ....   1.050
   Max. coefficient     DIISMaxC        ....  10.000
 MO-DIIS                CNVKDIIS        .... off
 Trust-Rad. Augm. Hess. CNVTRAH         .... auto
   Auto Start mean grad. ratio tolernc. ....  1.125000
   Auto Start start iteration           ....    50
   Auto Start num. interpolation iter.  ....    10
   Max. Number of Micro iterations      ....    24
   Max. Number of Macro iterations      .... Maxiter - #DIIS iter
   Number of Davidson start vectors     ....     2
   Converg. threshold    (grad. norm)   ....   5.000e-05
   Grad. Scal. Fac. for Micro threshold ....   0.100
   Minimum threshold for Micro iter.    ....   1.000e-02
   NR start threshold (gradient norm)   ....   1.000e-04
   Initial trust radius                 ....   0.400
   Minimum AH scaling param. (alpha)    ....   1.000
   Maximum AH scaling param. (alpha)    .... 1000.000
   Quad. conv. algorithm                .... NR
   White noise on init. David. guess    .... on
   Maximum white noise                  ....   0.010
   Pseudo random numbers                .... off
   Inactive MOs                         .... canonical
   Orbital update algorithm             .... Taylor
   Preconditioner                       .... Diag
   Full preconditioner red. dimension   ....   250
 SOSCF                 CNVSOSCF           .... on
   Start iteration     SOSCFMaxIt         ....   150
   Startup grad/error  SOSCFStart         ....  0.003300
   Hessian update      SOSCFHessUp        .... L-BFGS
   Autom. constraints  SOSCFAutoConstrain .... off
 Level Shifting         CNVShift        .... on
   Level shift para.    LevelShift      ....    0.2500
   Turn off err/grad.   ShiftErr        ....    0.0010
 Zerner damping         CNVZerner       .... off
 Static damping         CNVDamp         .... on
   Fraction old density DampFac         ....    0.7000
   Max. Damping (<1)    DampMax         ....    0.9800
   Min. Damping (>=0)   DampMin         ....    0.0000
   Turn off err/grad.   DampErr         ....    0.1000

SCF Procedure:
 Maximum # iterations   MaxIter         ....   125
 SCF integral mode      SCFMode         .... Direct
   Integral package                     .... SHARK and LIBINT hybrid scheme
 Reset frequency        DirectResetFreq ....    20
 Integral Threshold     Thresh          ....  1.000e-10 Eh
 Primitive CutOff       TCut            ....  1.000e-11 Eh

Convergence Tolerance:
 Convergence Check Mode ConvCheckMode   .... Total+1el-Energy
 Convergence forced     ConvForced      .... 0
 Energy Change          TolE            ....  1.000e-06 Eh
 1-El. energy change                    ....  1.000e-03 Eh
 Orbital Gradient       TolG            ....  5.000e-05
 Orbital Rotation angle TolX            ....  5.000e-05
 DIIS Error             TolErr          ....  1.000e-06

------------------------------
INITIAL GUESS: MODEL POTENTIAL
------------------------------
Loading Hartree-Fock densities                     ... done
Calculating cut-offs                               ... done
Initializing the effective Hamiltonian             ... done
Setting up the integral package (SHARK)            ... done
Starting the Coulomb interaction                   ... done (   6.5 sec)
Making the grid                                    ... done (   4.0 sec)
Mapping shells                                     ... done
Starting the XC term evaluation                    ... done (   3.1 sec)
  promolecular density results
     # of electrons  =    285.976580850
     EX              =   -244.327762173
     EC              =     -9.947991777
     EX+EC           =   -254.275753950
Transforming the Hamiltonian                       ... done (   0.1 sec)
Diagonalizing the Hamiltonian                      ... done (   0.1 sec)
Back transforming the eigenvectors                 ... done (   0.0 sec)
Now organizing SCF variables                       ... done
                      ------------------
                      INITIAL GUESS DONE (  14.0 sec)
                      ------------------
             **** ENERGY FILE WAS UPDATED (doxorubicin_dimerbasis_doxorubicin.en.tmp) ****
Finished Guess after  14.4 sec
Maximum memory used throughout the entire GUESS-calculation: 85.0 MB

-------------------------------------------------------------------------------------------
                                      ORCA LEAN-SCF
                              memory conserving SCF solver
-------------------------------------------------------------------------------------------

----------------------------------------D-I-I-S--------------------------------------------
Iteration    Energy (Eh)           Delta-E    RMSDP     MaxDP     DIISErr   Damp  Time(sec)
-------------------------------------------------------------------------------------------
               ***  Starting incremental Fock matrix formation  ***
    1    -1926.4572448973713108     0.00e+00  1.41e-03  8.28e-02  2.50e-01  0.700 125.6
Warning: op=0 Small HOMO/LUMO gap (   0.075) - skipping pre-diagonalization
         Will do a full diagonalization
    2    -1926.9124087411000801    -4.55e-01  8.89e-04  5.00e-02  1.15e-01  0.700  56.4
                               ***Turning on AO-DIIS***
    3    -1927.0860684439849138    -1.74e-01  3.74e-04  1.64e-02  3.60e-02  0.700  54.2
    4    -1927.1915205096320278    -1.05e-01  6.57e-04  3.26e-02  1.70e-02  0.000  47.7
    5    -1927.4241323637088499    -2.33e-01  1.22e-04  6.21e-03  4.93e-03  0.000  50.1
                              *** Initializing SOSCF ***
---------------------------------------S-O-S-C-F--------------------------------------
Iteration    Energy (Eh)           Delta-E    RMSDP     MaxDP     MaxGrad    Time(sec)
--------------------------------------------------------------------------------------
    6    -1927.4252378521578066    -1.11e-03  3.56e-05  1.85e-03  1.79e-03    42.5
               *** Restarting incremental Fock matrix formation ***
    7    -1927.4251283790035814     1.09e-04  2.84e-05  2.04e-03  4.27e-04   130.2
    8    -1927.4251120923381677     1.63e-05  1.62e-05  1.55e-03  7.74e-04    61.8
    9    -1927.4251433340969015    -3.12e-05  7.61e-06  4.65e-04  9.78e-05    50.6
   10    -1927.4251420696718924     1.26e-06  4.24e-06  2.93e-04  1.17e-04    47.7
   11    -1927.4251442949653210    -2.23e-06  1.84e-06  1.32e-04  2.84e-05    40.5
   12    -1927.4251443856182959    -9.07e-08  1.05e-06  7.46e-05  4.17e-05    36.1
                 **** Energy Check signals convergence ****

               *****************************************************
               *                     SUCCESS                       *
               *           SCF CONVERGED AFTER  12 CYCLES          *
               *****************************************************

Recomputing exchange energy using gridx3       ... done (  216.114 sec)
Old exchange energy                            :    -49.541494054 Eh
New exchange energy                            :    -49.541592297 Eh
Exchange energy change after final integration :     -0.000098243 Eh
Total energy after final integration           :  -1927.425242556 Eh
             **** ENERGY FILE WAS UPDATED (doxorubicin_dimerbasis_doxorubicin.en.tmp) ****

----------------
TOTAL SCF ENERGY
----------------

Total Energy       :      -1927.42524255643366 Eh          -52447.90725 eV

Components:
Nuclear Repulsion  :       4626.56496593945121 Eh          125895.23311 eV
Electronic Energy  :      -6553.99011025261552 Eh         -178343.13769 eV
One Electron Energy:     -11844.21744303754349 Eh         -322297.54192 eV
Two Electron Energy:       5290.22733278492797 Eh          143954.40423 eV

Virial components:
Potential Energy   :      -3843.77239740691630 Eh         -104594.36441 eV
Kinetic Energy     :       1916.34715485048264 Eh           52146.45716 eV
Virial Ratio       :          2.00578083552237

DFT components:
N(Alpha)           :      143.000188151816 electrons
N(Beta)            :      143.000188151816 electrons
N(Total)           :      286.000376303631 electrons
E(X)               :     -196.928616434972 Eh       
E(C)               :      -11.674359685414 Eh       
E(XC)              :     -208.602976120387 Eh       

---------------
SCF CONVERGENCE
---------------

  Last Energy change         ...    9.0653e-08  Tolerance :   1.0000e-06
  Last MAX-Density change    ...    7.4634e-05  Tolerance :   1.0000e-05
  Last RMS-Density change    ...    1.0544e-06  Tolerance :   1.0000e-06
  Last DIIS Error            ...    1.7894e-03  Tolerance :   1.0000e-06
  Last Orbital Gradient      ...    4.1663e-05  Tolerance :   5.0000e-05
  Last Orbital Rotation      ...    7.2861e-05  Tolerance :   5.0000e-05


----------------
ORBITAL ENERGIES
----------------

  NO   OCC          E(Eh)            E(eV) 
   0   2.0000     -19.190376      -522.1967 
   1   2.0000     -19.171375      -521.6796 
   2   2.0000     -19.165478      -521.5192 
   3   2.0000     -19.163956      -521.4777 
   4   2.0000     -19.163703      -521.4709 
   5   2.0000     -19.150487      -521.1112 
   6   2.0000     -19.144546      -520.9496 
   7   2.0000     -19.144372      -520.9448 
   8   2.0000     -19.141535      -520.8677 
   9   2.0000     -19.138207      -520.7771 
  10   2.0000     -19.131624      -520.5980 
  11   2.0000     -14.291995      -388.9050 
  12   2.0000     -10.285786      -279.8905 
  13   2.0000     -10.285229      -279.8753 
  14   2.0000     -10.284148      -279.8459 
  15   2.0000     -10.274365      -279.5797 
  16   2.0000     -10.267172      -279.3840 
  17   2.0000     -10.266171      -279.3567 
  18   2.0000     -10.264356      -279.3073 
  19   2.0000     -10.259062      -279.1633 
  20   2.0000     -10.244682      -278.7720 
  21   2.0000     -10.240960      -278.6707 
  22   2.0000     -10.231896      -278.4241 
  23   2.0000     -10.227725      -278.3105 
  24   2.0000     -10.221993      -278.1546 
  25   2.0000     -10.215408      -277.9754 
  26   2.0000     -10.215366      -277.9742 
  27   2.0000     -10.214986      -277.9639 
  28   2.0000     -10.210084      -277.8305 
  29   2.0000     -10.210034      -277.8292 
  30   2.0000     -10.205842      -277.7151 
  31   2.0000     -10.205011      -277.6925 
  32   2.0000     -10.204292      -277.6729 
  33   2.0000     -10.200024      -277.5568 
  34   2.0000     -10.196985      -277.4741 
  35   2.0000     -10.195389      -277.4306 
  36   2.0000     -10.182334      -277.0754 
  37   2.0000     -10.168718      -276.7049 
  38   2.0000     -10.163704      -276.5684 
  39   2.0000      -1.085202       -29.5298 
  40   2.0000      -1.074515       -29.2390 
  41   2.0000      -1.071318       -29.1520 
  42   2.0000      -1.069738       -29.1091 
  43   2.0000      -1.055589       -28.7240 
  44   2.0000      -1.040275       -28.3073 
  45   2.0000      -1.039663       -28.2907 
  46   2.0000      -1.032890       -28.1064 
  47   2.0000      -1.022650       -27.8277 
  48   2.0000      -1.007939       -27.4274 
  49   2.0000      -0.998376       -27.1672 
  50   2.0000      -0.883449       -24.0399 
  51   2.0000      -0.872856       -23.7516 
  52   2.0000      -0.871523       -23.7153 
  53   2.0000      -0.835385       -22.7320 
  54   2.0000      -0.794774       -21.6269 
  55   2.0000      -0.782363       -21.2892 
  56   2.0000      -0.778190       -21.1756 
  57   2.0000      -0.764748       -20.8098 
  58   2.0000      -0.764238       -20.7960 
  59   2.0000      -0.751530       -20.4502 
  60   2.0000      -0.737143       -20.0587 
  61   2.0000      -0.722266       -19.6539 
  62   2.0000      -0.714189       -19.4341 
  63   2.0000      -0.692013       -18.8306 
  64   2.0000      -0.681525       -18.5452 
  65   2.0000      -0.668693       -18.1961 
  66   2.0000      -0.654377       -17.8065 
  67   2.0000      -0.635501       -17.2929 
  68   2.0000      -0.624150       -16.9840 
  69   2.0000      -0.617704       -16.8086 
  70   2.0000      -0.614086       -16.7101 
  71   2.0000      -0.604531       -16.4501 
  72   2.0000      -0.585491       -15.9320 
  73   2.0000      -0.568930       -15.4814 
  74   2.0000      -0.558507       -15.1977 
  75   2.0000      -0.548460       -14.9244 
  76   2.0000      -0.544767       -14.8239 
  77   2.0000      -0.533314       -14.5122 
  78   2.0000      -0.527077       -14.3425 
  79   2.0000      -0.520869       -14.1736 
  80   2.0000      -0.518194       -14.1008 
  81   2.0000      -0.511899       -13.9295 
  82   2.0000      -0.503683       -13.7059 
  83   2.0000      -0.502222       -13.6661 
  84   2.0000      -0.495555       -13.4847 
  85   2.0000      -0.488318       -13.2878 
  86   2.0000      -0.484069       -13.1722 
  87   2.0000      -0.483146       -13.1471 
  88   2.0000      -0.478748       -13.0274 
  89   2.0000      -0.476854       -12.9759 
  90   2.0000      -0.471515       -12.8306 
  91   2.0000      -0.467783       -12.7290 
  92   2.0000      -0.463496       -12.6124 
  93   2.0000      -0.453525       -12.3410 
  94   2.0000      -0.450337       -12.2543 
  95   2.0000      -0.447670       -12.1817 
  96   2.0000      -0.442551       -12.0424 
  97   2.0000      -0.435843       -11.8599 
  98   2.0000      -0.432842       -11.7782 
  99   2.0000      -0.429375       -11.6839 
 100   2.0000      -0.424909       -11.5624 
 101   2.0000      -0.422903       -11.5078 
 102   2.0000      -0.418718       -11.3939 
 103   2.0000      -0.416402       -11.3309 
 104   2.0000      -0.412168       -11.2157 
 105   2.0000      -0.408657       -11.1201 
 106   2.0000      -0.403234       -10.9726 
 107   2.0000      -0.399833       -10.8800 
 108   2.0000      -0.393680       -10.7126 
 109   2.0000      -0.391384       -10.6501 
 110   2.0000      -0.386471       -10.5164 
 111   2.0000      -0.383806       -10.4439 
 112   2.0000      -0.380863       -10.3638 
 113   2.0000      -0.380626       -10.3574 
 114   2.0000      -0.376085       -10.2338 
 115   2.0000      -0.374794       -10.1987 
 116   2.0000      -0.374217       -10.1830 
 117   2.0000      -0.370693       -10.0871 
 118   2.0000      -0.364532        -9.9194 
 119   2.0000      -0.361686        -9.8420 
 120   2.0000      -0.358468        -9.7544 
 121   2.0000      -0.349567        -9.5122 
 122   2.0000      -0.346174        -9.4199 
 123   2.0000      -0.339586        -9.2406 
 124   2.0000      -0.335659        -9.1337 
 125   2.0000      -0.334844        -9.1116 
 126   2.0000      -0.331436        -9.0188 
 127   2.0000      -0.330189        -8.9849 
 128   2.0000      -0.314003        -8.5445 
 129   2.0000      -0.310634        -8.4528 
 130   2.0000      -0.293563        -7.9883 
 131   2.0000      -0.278448        -7.5770 
 132   2.0000      -0.276131        -7.5139 
 133   2.0000      -0.275161        -7.4875 
 134   2.0000      -0.266636        -7.2555 
 135   2.0000      -0.266430        -7.2499 
 136   2.0000      -0.263215        -7.1625 
 137   2.0000      -0.259059        -7.0493 
 138   2.0000      -0.256657        -6.9840 
 139   2.0000      -0.245209        -6.6725 
 140   2.0000      -0.241425        -6.5695 
 141   2.0000      -0.223104        -6.0710 
 142   2.0000      -0.212767        -5.7897 
 143   0.0000      -0.106605        -2.9009 
 144   0.0000      -0.049813        -1.3555 
 145   0.0000      -0.036479        -0.9926 
 146   0.0000      -0.027149        -0.7388 
 147   0.0000       0.005304         0.1443 
 148   0.0000       0.047681         1.2975 
 149   0.0000       0.056590         1.5399 
 150   0.0000       0.059857         1.6288 
 151   0.0000       0.067259         1.8302 
 152   0.0000       0.077875         2.1191 
 153   0.0000       0.080719         2.1965 
*Only the first 10 virtual orbitals were printed.

                    ********************************
                    * MULLIKEN POPULATION ANALYSIS *
                    ********************************

-----------------------
MULLIKEN ATOMIC CHARGES
-----------------------
   0 C :   -0.456387
   1 C :    0.138825
   2 C :    0.104466
   3 C :    0.005885
   4 C :   -0.312664
   5 C :    0.355130
   6 O :   -0.513062
   7 O :   -0.509474
   8 C :    0.103644
   9 C :   -0.328099
  10 C :    0.247659
  11 C :   -0.375509
  12 C :    0.058417
  13 C :    0.043953
  14 C :    0.255379
  15 C :    0.000217
  16 C :    0.011068
  17 C :    0.225146
  18 O :   -0.634888
  19 C :    0.296612
  20 O :   -0.505865
  21 C :    0.042620
  22 C :    0.018902
  23 C :    0.332093
  24 O :   -0.498034
  25 C :    0.319608
  26 C :   -0.200253
  27 C :   -0.121668
  28 C :   -0.173675
  29 O :   -0.443515
  30 C :   -0.218164
  31 O :   -0.641855
  32 C :    0.360981
  33 O :   -0.424027
  34 C :   -0.064701
  35 O :   -0.628174
  36 O :   -0.650911
  37 N :   -0.716307
  38 O :   -0.648283
  39 H :    0.150379
  40 H :    0.142664
  41 H :    0.154648
  42 H :    0.108279
  43 H :    0.134242
  44 H :    0.146021
  45 H :    0.143255
  46 H :    0.169455
  47 H :    0.146596
  48 H :    0.174124
  49 H :    0.159490
  50 H :    0.159655
  51 H :    0.184330
  52 H :    0.188170
  53 H :    0.453070
  54 H :    0.147721
  55 H :    0.147220
  56 H :    0.168250
  57 H :    0.156756
  58 H :    0.184470
  59 H :    0.157058
  60 H :    0.458783
  61 H :    0.167403
  62 H :    0.172180
  63 H :    0.419987
  64 H :    0.405605
  65 H :    0.312444
  66 H :    0.292914
  67 H :    0.398883
  68 C :    0.001184
  69 C :   -0.000034
  70 C :    0.000005
  71 C :    0.000000
  72 C :    0.000000
  73 C :   -0.000022
  74 C :   -0.000009
  75 C :   -0.000550
  76 C :    0.005083
  77 C :    0.001799
  78 C :    0.008052
  79 C :    0.000894
  80 C :   -0.000281
  81 C :    0.002823
  82 C :    0.000102
  83 C :   -0.000124
  84 H :   -0.004626
  85 H :   -0.000020
  86 H :   -0.000000
  87 H :   -0.000000
  88 H :   -0.000001
  89 H :   -0.020515
  90 H :   -0.031407
  91 H :   -0.006303
  92 H :   -0.015218
  93 O :   -0.000024
  94 O :    0.000050
  95 H :    0.000002
Sum of atomic charges:   -0.0000000

--------------------------------
MULLIKEN REDUCED ORBITAL CHARGES
--------------------------------
  0 C s       :     3.295261  s :     3.295261
      pz      :     1.038179  p :     3.127503
      px      :     1.065880
      py      :     1.023444
      dz2     :     0.003436  d :     0.033622
      dxz     :     0.009606
      dyz     :     0.008526
      dx2y2   :     0.007811
      dxy     :     0.004243

  1 C s       :     3.147486  s :     3.147486
      pz      :     0.956114  p :     2.646427
      px      :     0.756793
      py      :     0.933520
      dz2     :     0.008120  d :     0.067262
      dxz     :     0.018585
      dyz     :     0.012738
      dx2y2   :     0.015283
      dxy     :     0.012536

  2 C s       :     3.144061  s :     3.144061
      pz      :     0.969039  p :     2.684511
      px      :     0.771250
      py      :     0.944222
      dz2     :     0.007408  d :     0.066961
      dxz     :     0.014896
      dyz     :     0.016853
      dx2y2   :     0.013988
      dxy     :     0.013816

  3 C s       :     3.172557  s :     3.172557
      pz      :     0.811563  p :     2.763259
      px      :     0.926407
      py      :     1.025289
      dz2     :     0.018090  d :     0.058299
      dxz     :     0.012523
      dyz     :     0.009630
      dx2y2   :     0.011929
      dxy     :     0.006127

  4 C s       :     3.261020  s :     3.261020
      pz      :     0.950212  p :     3.014012
      px      :     0.991602
      py      :     1.072197
      dz2     :     0.009025  d :     0.037632
      dxz     :     0.005987
      dyz     :     0.006654
      dx2y2   :     0.006675
      dxy     :     0.009291

  5 C s       :     3.055990  s :     3.055990
      pz      :     0.875621  p :     2.491559
      px      :     0.942172
      py      :     0.673766
      dz2     :     0.018691  d :     0.097321
      dxz     :     0.009279
      dyz     :     0.023209
      dx2y2   :     0.026296
      dxy     :     0.019846

  6 O s       :     3.874390  s :     3.874390
      pz      :     1.712550  p :     4.612792
      px      :     1.365910
      py      :     1.534332
      dz2     :     0.003329  d :     0.025880
      dxz     :     0.006034
      dyz     :     0.005269
      dx2y2   :     0.006995
      dxy     :     0.004253

  7 O s       :     3.886042  s :     3.886042
      pz      :     1.309501  p :     4.596839
      px      :     1.756540
      py      :     1.530799
      dz2     :     0.007578  d :     0.026593
      dxz     :     0.005269
      dyz     :     0.005044
      dx2y2   :     0.004439
      dxy     :     0.004262

  8 C s       :     3.149101  s :     3.149101
      pz      :     0.724638  p :     2.678523
      px      :     0.960954
      py      :     0.992931
      dz2     :     0.020911  d :     0.068732
      dxz     :     0.017100
      dyz     :     0.009898
      dx2y2   :     0.006850
      dxy     :     0.013973

  9 C s       :     3.262996  s :     3.262996
      pz      :     0.942881  p :     3.027012
      px      :     1.022945
      py      :     1.061186
      dz2     :     0.008105  d :     0.038091
      dxz     :     0.008759
      dyz     :     0.005601
      dx2y2   :     0.010352
      dxy     :     0.005273

 10 C s       :     3.130571  s :     3.130571
      pz      :     0.841900  p :     2.550506
      px      :     0.736314
      py      :     0.972291
      dz2     :     0.014200  d :     0.071265
      dxz     :     0.019268
      dyz     :     0.010835
      dx2y2   :     0.017016
      dxy     :     0.009945

 11 C s       :     3.282796  s :     3.282796
      pz      :     1.065276  p :     3.053432
      px      :     1.034363
      py      :     0.953793
      dz2     :     0.007673  d :     0.039281
      dxz     :     0.007626
      dyz     :     0.008338
      dx2y2   :     0.010163
      dxy     :     0.005481

 12 C s       :     3.161147  s :     3.161147
      pz      :     0.936158  p :     2.741049
      px      :     0.890233
      py      :     0.914658
      dz2     :     0.008393  d :     0.039387
      dxz     :     0.006622
      dyz     :     0.007610
      dx2y2   :     0.008238
      dxy     :     0.008524

 13 C s       :     3.157270  s :     3.157270
      pz      :     0.931877  p :     2.760896
      px      :     0.949152
      py      :     0.879867
      dz2     :     0.007167  d :     0.037882
      dxz     :     0.006521
      dyz     :     0.007071
      dx2y2   :     0.008804
      dxy     :     0.008319

 14 C s       :     3.140146  s :     3.140146
      pz      :     0.826414  p :     2.531188
      px      :     0.893893
      py      :     0.810880
      dz2     :     0.013879  d :     0.073287
      dxz     :     0.010418
      dyz     :     0.016810
      dx2y2   :     0.015606
      dxy     :     0.016574

 15 C s       :     3.144160  s :     3.144160
      pz      :     0.994814  p :     2.818892
      px      :     0.944477
      py      :     0.879601
      dz2     :     0.006440  d :     0.036731
      dxz     :     0.006464
      dyz     :     0.007480
      dx2y2   :     0.007936
      dxy     :     0.008411

 16 C s       :     3.142386  s :     3.142386
      pz      :     0.982845  p :     2.809407
      px      :     0.924077
      py      :     0.902485
      dz2     :     0.008029  d :     0.037139
      dxz     :     0.006110
      dyz     :     0.006939
      dx2y2   :     0.007893
      dxy     :     0.008168

 17 C s       :     3.138957  s :     3.138957
      pz      :     0.815564  p :     2.562711
      px      :     0.901324
      py      :     0.845824
      dz2     :     0.016738  d :     0.073186
      dxz     :     0.011590
      dyz     :     0.015855
      dx2y2   :     0.013688
      dxy     :     0.015316

 18 O s       :     3.891656  s :     3.891656
      pz      :     1.610932  p :     4.714693
      px      :     1.693778
      py      :     1.409983
      dz2     :     0.007265  d :     0.028539
      dxz     :     0.005328
      dyz     :     0.004074
      dx2y2   :     0.002586
      dxy     :     0.009285

 19 C s       :     3.117757  s :     3.117757
      pz      :     0.794715  p :     2.498661
      px      :     0.848178
      py      :     0.855767
      dz2     :     0.016686  d :     0.086970
      dxz     :     0.015353
      dyz     :     0.017814
      dx2y2   :     0.021312
      dxy     :     0.015805

 20 O s       :     3.891064  s :     3.891064
      pz      :     1.425530  p :     4.588947
      px      :     1.585477
      py      :     1.577940
      dz2     :     0.006269  d :     0.025854
      dxz     :     0.003239
      dyz     :     0.006952
      dx2y2   :     0.003941
      dxy     :     0.005452

 21 C s       :     3.178252  s :     3.178252
      pz      :     0.948393  p :     2.740156
      px      :     0.937841
      py      :     0.853922
      dz2     :     0.006068  d :     0.038972
      dxz     :     0.006524
      dyz     :     0.008867
      dx2y2   :     0.008607
      dxy     :     0.008906

 22 C s       :     3.167428  s :     3.167428
      pz      :     0.973886  p :     2.778044
      px      :     0.915122
      py      :     0.889035
      dz2     :     0.006785  d :     0.035627
      dxz     :     0.005950
      dyz     :     0.006824
      dx2y2   :     0.008135
      dxy     :     0.007933

 23 C s       :     3.124864  s :     3.124864
      pz      :     0.804777  p :     2.456343
      px      :     0.843530
      py      :     0.808036
      dz2     :     0.017243  d :     0.086699
      dxz     :     0.015440
      dyz     :     0.016767
      dx2y2   :     0.021239
      dxy     :     0.016010

 24 O s       :     3.907784  s :     3.907784
      pz      :     1.446661  p :     4.564030
      px      :     1.605705
      py      :     1.511664
      dz2     :     0.007134  d :     0.026220
      dxz     :     0.004345
      dyz     :     0.006036
      dx2y2   :     0.003312
      dxy     :     0.005393

 25 C s       :     3.104797  s :     3.104797
      pz      :     0.824114  p :     2.503450
      px      :     0.881691
      py      :     0.797645
      dz2     :     0.014248  d :     0.072145
      dxz     :     0.010288
      dyz     :     0.017039
      dx2y2   :     0.014447
      dxy     :     0.016124

 26 C s       :     3.184067  s :     3.184067
      pz      :     1.017342  p :     2.982095
      px      :     1.003735
      py      :     0.961018
      dz2     :     0.004755  d :     0.034091
      dxz     :     0.006991
      dyz     :     0.006700
      dx2y2   :     0.008312
      dxy     :     0.007333

 27 C s       :     3.206578  s :     3.206578
      pz      :     0.939666  p :     2.877604
      px      :     0.955697
      py      :     0.982241
      dz2     :     0.008305  d :     0.037485
      dxz     :     0.005817
      dyz     :     0.006058
      dx2y2   :     0.008376
      dxy     :     0.008930

 28 C s       :     3.213220  s :     3.213220
      pz      :     0.965212  p :     2.924717
      px      :     0.943955
      py      :     1.015550
      dz2     :     0.004787  d :     0.035738
      dxz     :     0.005908
      dyz     :     0.008666
      dx2y2   :     0.007988
      dxy     :     0.008390

 29 O s       :     3.876820  s :     3.876820
      pz      :     1.461005  p :     4.535796
      px      :     1.478697
      py      :     1.596094
      dz2     :     0.005094  d :     0.030899
      dxz     :     0.004761
      dyz     :     0.008127
      dx2y2   :     0.005697
      dxy     :     0.007220

 30 C s       :     3.253782  s :     3.253782
      pz      :     0.944810  p :     2.905407
      px      :     0.866248
      py      :     1.094349
      dz2     :     0.005651  d :     0.058976
      dxz     :     0.017008
      dyz     :     0.015316
      dx2y2   :     0.013075
      dxy     :     0.007926

 31 O s       :     3.904450  s :     3.904450
      pz      :     1.543143  p :     4.708941
      px      :     1.581771
      py      :     1.584026
      dz2     :     0.003550  d :     0.028465
      dxz     :     0.003725
      dyz     :     0.007873
      dx2y2   :     0.005339
      dxy     :     0.007978

 32 C s       :     3.130642  s :     3.130642
      pz      :     0.859142  p :     2.423550
      px      :     0.780023
      py      :     0.784385
      dz2     :     0.014554  d :     0.084827
      dxz     :     0.010627
      dyz     :     0.022976
      dx2y2   :     0.017532
      dxy     :     0.019139

 33 O s       :     3.885032  s :     3.885032
      pz      :     1.663571  p :     4.510676
      px      :     1.482654
      py      :     1.364451
      dz2     :     0.003462  d :     0.028319
      dxz     :     0.002843
      dyz     :     0.006170
      dx2y2   :     0.008733
      dxy     :     0.007111

 34 C s       :     3.182781  s :     3.182781
      pz      :     0.926955  p :     2.816839
      px      :     0.931833
      py      :     0.958050
      dz2     :     0.010506  d :     0.065081
      dxz     :     0.014711
      dyz     :     0.011837
      dx2y2   :     0.015767
      dxy     :     0.012260

 35 O s       :     3.875854  s :     3.875854
      pz      :     1.671357  p :     4.725522
      px      :     1.658745
      py      :     1.395421
      dz2     :     0.003215  d :     0.026798
      dxz     :     0.005840
      dyz     :     0.010419
      dx2y2   :     0.005018
      dxy     :     0.002306

 36 O s       :     3.913245  s :     3.913245
      pz      :     1.765808  p :     4.710252
      px      :     1.516339
      py      :     1.428104
      dz2     :     0.005170  d :     0.027413
      dxz     :     0.005637
      dyz     :     0.002036
      dx2y2   :     0.011606
      dxy     :     0.002964

 37 N s       :     3.655405  s :     3.655405
      pz      :     1.347117  p :     4.027029
      px      :     1.353540
      py      :     1.326372
      dz2     :     0.012255  d :     0.033873
      dxz     :     0.002841
      dyz     :     0.002480
      dx2y2   :     0.015880
      dxy     :     0.000416

 38 O s       :     3.887818  s :     3.887818
      pz      :     1.558514  p :     4.733749
      px      :     1.308199
      py      :     1.867036
      dz2     :     0.004907  d :     0.026716
      dxz     :     0.013057
      dyz     :     0.003402
      dx2y2   :     0.002899
      dxy     :     0.002451

 39 H s       :     0.849621  s :     0.849621

 40 H s       :     0.857336  s :     0.857336

 41 H s       :     0.845352  s :     0.845352

 42 H s       :     0.891721  s :     0.891721

 43 H s       :     0.865758  s :     0.865758

 44 H s       :     0.853979  s :     0.853979

 45 H s       :     0.856745  s :     0.856745

 46 H s       :     0.830545  s :     0.830545

 47 H s       :     0.853404  s :     0.853404

 48 H s       :     0.825876  s :     0.825876

 49 H s       :     0.840510  s :     0.840510

 50 H s       :     0.840345  s :     0.840345

 51 H s       :     0.815670  s :     0.815670

 52 H s       :     0.811830  s :     0.811830

 53 H s       :     0.546930  s :     0.546930

 54 H s       :     0.852279  s :     0.852279

 55 H s       :     0.852780  s :     0.852780

 56 H s       :     0.831750  s :     0.831750

 57 H s       :     0.843244  s :     0.843244

 58 H s       :     0.815530  s :     0.815530

 59 H s       :     0.842942  s :     0.842942

 60 H s       :     0.541217  s :     0.541217

 61 H s       :     0.832597  s :     0.832597

 62 H s       :     0.827820  s :     0.827820

 63 H s       :     0.580013  s :     0.580013

 64 H s       :     0.594395  s :     0.594395

 65 H s       :     0.687556  s :     0.687556

 66 H s       :     0.707086  s :     0.707086

 67 H s       :     0.601117  s :     0.601117

 68 C s       :    -0.001051  s :    -0.001051
      pz      :    -0.000770  p :    -0.000126
      px      :     0.000558
      py      :     0.000086
      dz2     :    -0.000000  d :    -0.000007
      dxz     :    -0.000002
      dyz     :    -0.000001
      dx2y2   :    -0.000002
      dxy     :    -0.000002

 69 C s       :    -0.000004  s :    -0.000004
      pz      :     0.000044  p :     0.000037
      px      :    -0.000012
      py      :     0.000006
      dz2     :    -0.000000  d :    -0.000000
      dxz     :    -0.000000
      dyz     :    -0.000000
      dx2y2   :    -0.000000
      dxy     :    -0.000000

 70 C s       :     0.000000  s :     0.000000
      pz      :    -0.000002  p :    -0.000005
      px      :    -0.000002
      py      :    -0.000001
      dz2     :    -0.000000  d :    -0.000000
      dxz     :    -0.000000
      dyz     :    -0.000000
      dx2y2   :    -0.000000
      dxy     :    -0.000000

 71 C s       :    -0.000000  s :    -0.000000
      pz      :    -0.000000  p :     0.000000
      px      :    -0.000000
      py      :     0.000000
      dz2     :    -0.000000  d :    -0.000000
      dxz     :    -0.000000
      dyz     :    -0.000000
      dx2y2   :    -0.000000
      dxy     :    -0.000000

 72 C s       :    -0.000000  s :    -0.000000
      pz      :    -0.000000  p :    -0.000000
      px      :    -0.000000
      py      :    -0.000000
      dz2     :    -0.000000  d :    -0.000000
      dxz     :    -0.000000
      dyz     :    -0.000000
      dx2y2   :    -0.000000
      dxy     :    -0.000000

 73 C s       :     0.000016  s :     0.000016
      pz      :     0.000000  p :     0.000007
      px      :     0.000004
      py      :     0.000003
      dz2     :    -0.000000  d :    -0.000000
      dxz     :    -0.000000
      dyz     :    -0.000000
      dx2y2   :     0.000000
      dxy     :    -0.000000

 74 C s       :     0.000010  s :     0.000010
      pz      :    -0.000008  p :    -0.000001
      px      :     0.000008
      py      :    -0.000000
      dz2     :    -0.000000  d :    -0.000000
      dxz     :     0.000000
      dyz     :    -0.000000
      dx2y2   :    -0.000000
      dxy     :    -0.000000

 75 C s       :     0.000113  s :     0.000113
      pz      :     0.000051  p :     0.000438
      px      :     0.000279
      py      :     0.000107
      dz2     :    -0.000000  d :     0.000000
      dxz     :     0.000000
      dyz     :    -0.000000
      dx2y2   :     0.000000
      dxy     :     0.000000

 76 C s       :    -0.003290  s :    -0.003290
      pz      :    -0.000065  p :    -0.001784
      px      :    -0.001394
      py      :    -0.000325
      dz2     :    -0.000002  d :    -0.000009
      dxz     :     0.000000
      dyz     :    -0.000000
      dx2y2   :    -0.000002
      dxy     :    -0.000005

 77 C s       :    -0.001587  s :    -0.001587
      pz      :     0.000392  p :    -0.000210
      px      :    -0.000390
      py      :    -0.000212
      dz2     :     0.000000  d :    -0.000002
      dxz     :     0.000000
      dyz     :    -0.000000
      dx2y2   :    -0.000001
      dxy     :    -0.000002

 78 C s       :    -0.000205  s :    -0.000205
      pz      :     0.001453  p :    -0.007834
      px      :    -0.007270
      py      :    -0.002018
      dz2     :    -0.000001  d :    -0.000013
      dxz     :    -0.000009
      dyz     :    -0.000002
      dx2y2   :    -0.000001
      dxy     :    -0.000000

 79 C s       :    -0.000560  s :    -0.000560
      pz      :    -0.001000  p :    -0.000332
      px      :     0.000510
      py      :     0.000158
      dz2     :    -0.000001  d :    -0.000003
      dxz     :    -0.000001
      dyz     :    -0.000000
      dx2y2   :    -0.000000
      dxy     :    -0.000000

 80 C s       :    -0.000062  s :    -0.000062
      pz      :     0.000241  p :     0.000345
      px      :     0.000016
      py      :     0.000089
      dz2     :    -0.000000  d :    -0.000002
      dxz     :    -0.000001
      dyz     :    -0.000000
      dx2y2   :    -0.000001
      dxy     :    -0.000001

 81 C s       :    -0.001305  s :    -0.001305
      pz      :    -0.000820  p :    -0.001515
      px      :    -0.001492
      py      :     0.000797
      dz2     :    -0.000002  d :    -0.000003
      dxz     :    -0.000000
      dyz     :    -0.000000
      dx2y2   :    -0.000001
      dxy     :     0.000000

 82 C s       :    -0.000014  s :    -0.000014
      pz      :    -0.000015  p :    -0.000088
      px      :    -0.000077
      py      :     0.000004
      dz2     :    -0.000000  d :    -0.000000
      dxz     :    -0.000000
      dyz     :    -0.000000
      dx2y2   :    -0.000000
      dxy     :    -0.000000

 83 C s       :     0.000072  s :     0.000072
      pz      :    -0.000031  p :     0.000053
      px      :     0.000058
      py      :     0.000025
      dz2     :    -0.000000  d :    -0.000000
      dxz     :    -0.000000
      dyz     :    -0.000000
      dx2y2   :    -0.000000
      dxy     :    -0.000000

 84 H s       :     0.004626  s :     0.004626

 85 H s       :     0.000020  s :     0.000020

 86 H s       :     0.000000  s :     0.000000

 87 H s       :     0.000000  s :     0.000000

 88 H s       :     0.000001  s :     0.000001

 89 H s       :     0.020515  s :     0.020515

 90 H s       :     0.031407  s :     0.031407

 91 H s       :     0.006303  s :     0.006303

 92 H s       :     0.015218  s :     0.015218

 93 O s       :     0.000003  s :     0.000003
      pz      :     0.000008  p :     0.000021
      px      :     0.000008
      py      :     0.000005
      dz2     :    -0.000000  d :    -0.000001
      dxz     :    -0.000000
      dyz     :    -0.000000
      dx2y2   :    -0.000000
      dxy     :    -0.000000

 94 O s       :    -0.000030  s :    -0.000030
      pz      :    -0.000013  p :    -0.000020
      px      :    -0.000003
      py      :    -0.000004
      dz2     :    -0.000000  d :    -0.000000
      dxz     :    -0.000000
      dyz     :    -0.000000
      dx2y2   :    -0.000000
      dxy     :    -0.000000

 95 H s       :    -0.000002  s :    -0.000002



                     *******************************
                     * LOEWDIN POPULATION ANALYSIS *
                     *******************************

----------------------
LOEWDIN ATOMIC CHARGES
----------------------
   0 C :   -0.375625
   1 C :   -0.016573
   2 C :   -0.047900
   3 C :   -0.077443
   4 C :   -0.240618
   5 C :    0.074769
   6 O :   -0.234361
   7 O :   -0.224049
   8 C :    0.008544
   9 C :   -0.241580
  10 C :    0.037568
  11 C :   -0.220082
  12 C :   -0.023003
  13 C :   -0.022927
  14 C :    0.106383
  15 C :   -0.093255
  16 C :   -0.095677
  17 C :    0.095378
  18 O :   -0.302199
  19 C :    0.130283
  20 O :   -0.259163
  21 C :   -0.027012
  22 C :   -0.061162
  23 C :    0.131470
  24 O :   -0.241284
  25 C :    0.104242
  26 C :   -0.165316
  27 C :   -0.099237
  28 C :   -0.116296
  29 O :   -0.124678
  30 C :   -0.204691
  31 O :   -0.300583
  32 C :    0.112376
  33 O :   -0.201089
  34 C :   -0.135441
  35 O :   -0.391421
  36 O :   -0.376211
  37 N :   -0.460673
  38 O :   -0.404107
  39 H :    0.131985
  40 H :    0.121726
  41 H :    0.132755
  42 H :    0.109463
  43 H :    0.115232
  44 H :    0.128671
  45 H :    0.130264
  46 H :    0.145169
  47 H :    0.121655
  48 H :    0.141494
  49 H :    0.136899
  50 H :    0.138915
  51 H :    0.153570
  52 H :    0.150527
  53 H :    0.336506
  54 H :    0.143367
  55 H :    0.140725
  56 H :    0.154425
  57 H :    0.122361
  58 H :    0.143450
  59 H :    0.122086
  60 H :    0.337620
  61 H :    0.137781
  62 H :    0.139178
  63 H :    0.315868
  64 H :    0.318212
  65 H :    0.230216
  66 H :    0.218294
  67 H :    0.313420
  68 C :   -0.000536
  69 C :   -0.000018
  70 C :   -0.000003
  71 C :   -0.000000
  72 C :   -0.000000
  73 C :   -0.000002
  74 C :   -0.000005
  75 C :   -0.000025
  76 C :   -0.001415
  77 C :   -0.000078
  78 C :   -0.001257
  79 C :   -0.000968
  80 C :   -0.000211
  81 C :   -0.002270
  82 C :   -0.000008
  83 C :   -0.000007
  84 H :   -0.002172
  85 H :   -0.000011
  86 H :   -0.000000
  87 H :   -0.000000
  88 H :   -0.000000
  89 H :   -0.014217
  90 H :   -0.013893
  91 H :   -0.003030
  92 H :   -0.009048
  93 O :   -0.000014
  94 O :   -0.000002
  95 H :   -0.000000

-------------------------------
LOEWDIN REDUCED ORBITAL CHARGES
-------------------------------
  0 C s       :     2.982303  s :     2.982303
      pz      :     1.107877  p :     3.327009
      px      :     1.129609
      py      :     1.089523
      dz2     :     0.006596  d :     0.066313
      dxz     :     0.017802
      dyz     :     0.018321
      dx2y2   :     0.015505
      dxy     :     0.008089

  1 C s       :     2.905681  s :     2.905681
      pz      :     1.041811  p :     2.961342
      px      :     0.880136
      py      :     1.039396
      dz2     :     0.016027  d :     0.149550
      dxz     :     0.039542
      dyz     :     0.030754
      dx2y2   :     0.035335
      dxy     :     0.027892

  2 C s       :     2.909130  s :     2.909130
      pz      :     1.047827  p :     2.987429
      px      :     0.888482
      py      :     1.051120
      dz2     :     0.014687  d :     0.151341
      dxz     :     0.035808
      dyz     :     0.037058
      dx2y2   :     0.030242
      dxy     :     0.033545

  3 C s       :     2.892468  s :     2.892468
      pz      :     0.952739  p :     3.055999
      px      :     1.027233
      py      :     1.076027
      dz2     :     0.040266  d :     0.128976
      dxz     :     0.029325
      dyz     :     0.021539
      dx2y2   :     0.025583
      dxy     :     0.012264

  4 C s       :     2.942989  s :     2.942989
      pz      :     1.042336  p :     3.217786
      px      :     1.058729
      py      :     1.116721
      dz2     :     0.021345  d :     0.079844
      dxz     :     0.013145
      dyz     :     0.013332
      dx2y2   :     0.014428
      dxy     :     0.017593

  5 C s       :     2.881119  s :     2.881119
      pz      :     0.984864  p :     2.826624
      px      :     1.022949
      py      :     0.818811
      dz2     :     0.044222  d :     0.217487
      dxz     :     0.018215
      dyz     :     0.051404
      dx2y2   :     0.059090
      dxy     :     0.044556

  6 O s       :     3.493533  s :     3.493533
      pz      :     1.715428  p :     4.680901
      px      :     1.415043
      py      :     1.550429
      dz2     :     0.007133  d :     0.059927
      dxz     :     0.013008
      dyz     :     0.009848
      dx2y2   :     0.016717
      dxy     :     0.013222

  7 O s       :     3.498687  s :     3.498687
      pz      :     1.343603  p :     4.664367
      px      :     1.763639
      py      :     1.557125
      dz2     :     0.018641  d :     0.060994
      dxz     :     0.011815
      dyz     :     0.014441
      dx2y2   :     0.008393
      dxy     :     0.007705

  8 C s       :     2.887174  s :     2.887174
      pz      :     0.852525  p :     2.953135
      px      :     1.046017
      py      :     1.054593
      dz2     :     0.046262  d :     0.151147
      dxz     :     0.040030
      dyz     :     0.020475
      dx2y2   :     0.014810
      dxy     :     0.029570

  9 C s       :     2.942920  s :     2.942920
      pz      :     1.031063  p :     3.217043
      px      :     1.079854
      py      :     1.106126
      dz2     :     0.018551  d :     0.081617
      dxz     :     0.019762
      dyz     :     0.012752
      dx2y2   :     0.020538
      dxy     :     0.010015

 10 C s       :     2.870039  s :     2.870039
      pz      :     0.985358  p :     2.925679
      px      :     0.893579
      py      :     1.046743
      dz2     :     0.032978  d :     0.166714
      dxz     :     0.045923
      dyz     :     0.024624
      dx2y2   :     0.041528
      dxy     :     0.021662

 11 C s       :     2.926384  s :     2.926384
      pz      :     1.097166  p :     3.210526
      px      :     1.081650
      py      :     1.031710
      dz2     :     0.015966  d :     0.083173
      dxz     :     0.015717
      dyz     :     0.016774
      dx2y2   :     0.023233
      dxy     :     0.011483

 12 C s       :     2.874793  s :     2.874793
      pz      :     1.015790  p :     3.049394
      px      :     1.002459
      py      :     1.031146
      dz2     :     0.019265  d :     0.098815
      dxz     :     0.015823
      dyz     :     0.020158
      dx2y2   :     0.021438
      dxy     :     0.022131

 13 C s       :     2.882274  s :     2.882274
      pz      :     1.009875  p :     3.045498
      px      :     1.005593
      py      :     1.030031
      dz2     :     0.016708  d :     0.095154
      dxz     :     0.016971
      dyz     :     0.018429
      dx2y2   :     0.022092
      dxy     :     0.020955

 14 C s       :     2.848330  s :     2.848330
      pz      :     0.917628  p :     2.870378
      px      :     0.978780
      py      :     0.973970
      dz2     :     0.030613  d :     0.174909
      dxz     :     0.025585
      dyz     :     0.040414
      dx2y2   :     0.039154
      dxy     :     0.039142

 15 C s       :     2.868175  s :     2.868175
      pz      :     1.046141  p :     3.128274
      px      :     1.041459
      py      :     1.040675
      dz2     :     0.015557  d :     0.096806
      dxz     :     0.016310
      dyz     :     0.020154
      dx2y2   :     0.021910
      dxy     :     0.022875

 16 C s       :     2.865150  s :     2.865150
      pz      :     1.049748  p :     3.131679
      px      :     1.048223
      py      :     1.033708
      dz2     :     0.019176  d :     0.098848
      dxz     :     0.016989
      dyz     :     0.018853
      dx2y2   :     0.021345
      dxy     :     0.022485

 17 C s       :     2.847866  s :     2.847866
      pz      :     0.924561  p :     2.881500
      px      :     0.982858
      py      :     0.974080
      dz2     :     0.037730  d :     0.175257
      dxz     :     0.028617
      dyz     :     0.038476
      dx2y2   :     0.033982
      dxy     :     0.036452

 18 O s       :     3.514553  s :     3.514553
      pz      :     1.625461  p :     4.733542
      px      :     1.695064
      py      :     1.413017
      dz2     :     0.012379  d :     0.054104
      dxz     :     0.008927
      dyz     :     0.010525
      dx2y2   :     0.006143
      dxy     :     0.016129

 19 C s       :     2.864113  s :     2.864113
      pz      :     0.895100  p :     2.799016
      px      :     0.922293
      py      :     0.981624
      dz2     :     0.036569  d :     0.206587
      dxz     :     0.038518
      dyz     :     0.043433
      dx2y2   :     0.051896
      dxy     :     0.036171

 20 O s       :     3.559517  s :     3.559517
      pz      :     1.457930  p :     4.646591
      px      :     1.584087
      py      :     1.604574
      dz2     :     0.009817  d :     0.053055
      dxz     :     0.007997
      dyz     :     0.016813
      dx2y2   :     0.008698
      dxy     :     0.009730

 21 C s       :     2.876760  s :     2.876760
      pz      :     0.998905  p :     3.050377
      px      :     1.002145
      py      :     1.049327
      dz2     :     0.014535  d :     0.099874
      dxz     :     0.016103
      dyz     :     0.022746
      dx2y2   :     0.023174
      dxy     :     0.023316

 22 C s       :     2.877530  s :     2.877530
      pz      :     1.034206  p :     3.091567
      px      :     1.028621
      py      :     1.028740
      dz2     :     0.015721  d :     0.092065
      dxz     :     0.015754
      dyz     :     0.017966
      dx2y2   :     0.021235
      dxy     :     0.021389

 23 C s       :     2.864902  s :     2.864902
      pz      :     0.896483  p :     2.797146
      px      :     0.927285
      py      :     0.973378
      dz2     :     0.037710  d :     0.206483
      dxz     :     0.037462
      dyz     :     0.041468
      dx2y2   :     0.053172
      dxy     :     0.036671

 24 O s       :     3.559779  s :     3.559779
      pz      :     1.471383  p :     4.628009
      px      :     1.604595
      py      :     1.552030
      dz2     :     0.010711  d :     0.053497
      dxz     :     0.008982
      dyz     :     0.015502
      dx2y2   :     0.007785
      dxy     :     0.010517

 25 C s       :     2.851848  s :     2.851848
      pz      :     0.913484  p :     2.873454
      px      :     0.975625
      py      :     0.984344
      dz2     :     0.031109  d :     0.170456
      dxz     :     0.024691
      dyz     :     0.040639
      dx2y2   :     0.036520
      dxy     :     0.037497

 26 C s       :     2.916559  s :     2.916559
      pz      :     1.056410  p :     3.167331
      px      :     1.058632
      py      :     1.052289
      dz2     :     0.010951  d :     0.081427
      dxz     :     0.013465
      dyz     :     0.017916
      dx2y2   :     0.020891
      dxy     :     0.018204

 27 C s       :     2.915876  s :     2.915876
      pz      :     1.008644  p :     3.095121
      px      :     1.023525
      py      :     1.062952
      dz2     :     0.018247  d :     0.088240
      dxz     :     0.015681
      dyz     :     0.015166
      dx2y2   :     0.018931
      dxy     :     0.020216

 28 C s       :     2.913488  s :     2.913488
      pz      :     1.030034  p :     3.118282
      px      :     1.026253
      py      :     1.061996
      dz2     :     0.010718  d :     0.084526
      dxz     :     0.013545
      dyz     :     0.018914
      dx2y2   :     0.019703
      dxy     :     0.021646

 29 O s       :     3.453163  s :     3.453163
      pz      :     1.479854  p :     4.600739
      px      :     1.504586
      py      :     1.616299
      dz2     :     0.012134  d :     0.070776
      dxz     :     0.014130
      dyz     :     0.017664
      dx2y2   :     0.012308
      dxy     :     0.014540

 30 C s       :     2.975945  s :     2.975945
      pz      :     1.017513  p :     3.110961
      px      :     0.957724
      py      :     1.135724
      dz2     :     0.011125  d :     0.117785
      dxz     :     0.033233
      dyz     :     0.030726
      dx2y2   :     0.025971
      dxy     :     0.016730

 31 O s       :     3.515476  s :     3.515476
      pz      :     1.549397  p :     4.731101
      px      :     1.569432
      py      :     1.612272
      dz2     :     0.007037  d :     0.054006
      dxz     :     0.008203
      dyz     :     0.015546
      dx2y2   :     0.010191
      dxy     :     0.013028

 32 C s       :     2.918880  s :     2.918880
      pz      :     0.961236  p :     2.767753
      px      :     0.864976
      py      :     0.941541
      dz2     :     0.034079  d :     0.200991
      dxz     :     0.022566
      dyz     :     0.058150
      dx2y2   :     0.038765
      dxy     :     0.047431

 33 O s       :     3.560068  s :     3.560068
      pz      :     1.656713  p :     4.583999
      px      :     1.490180
      py      :     1.437106
      dz2     :     0.007469  d :     0.057022
      dxz     :     0.004605
      dyz     :     0.013715
      dx2y2   :     0.014913
      dxy     :     0.016320

 34 C s       :     2.928822  s :     2.928822
      pz      :     1.021233  p :     3.067160
      px      :     1.014622
      py      :     1.031305
      dz2     :     0.023721  d :     0.139460
      dxz     :     0.032153
      dyz     :     0.025695
      dx2y2   :     0.031370
      dxy     :     0.026521

 35 O s       :     3.550555  s :     3.550555
      pz      :     1.681691  p :     4.790871
      px      :     1.684543
      py      :     1.424637
      dz2     :     0.005035  d :     0.049994
      dxz     :     0.009866
      dyz     :     0.017838
      dx2y2   :     0.010657
      dxy     :     0.006597

 36 O s       :     3.568562  s :     3.568562
      pz      :     1.767641  p :     4.758552
      px      :     1.542251
      py      :     1.448660
      dz2     :     0.008643  d :     0.049097
      dxz     :     0.010771
      dyz     :     0.003333
      dx2y2   :     0.019801
      dxy     :     0.006549

 37 N s       :     3.281957  s :     3.281957
      pz      :     1.391517  p :     4.115789
      px      :     1.367865
      py      :     1.356408
      dz2     :     0.023014  d :     0.062927
      dxz     :     0.006513
      dyz     :     0.006329
      dx2y2   :     0.025428
      dxy     :     0.001643

 38 O s       :     3.562838  s :     3.562838
      pz      :     1.589470  p :     4.791890
      px      :     1.337338
      py      :     1.865081
      dz2     :     0.007611  d :     0.049379
      dxz     :     0.023581
      dyz     :     0.004956
      dx2y2   :     0.007066
      dxy     :     0.006165

 39 H s       :     0.868015  s :     0.868015

 40 H s       :     0.878274  s :     0.878274

 41 H s       :     0.867245  s :     0.867245

 42 H s       :     0.890537  s :     0.890537

 43 H s       :     0.884768  s :     0.884768

 44 H s       :     0.871329  s :     0.871329

 45 H s       :     0.869736  s :     0.869736

 46 H s       :     0.854831  s :     0.854831

 47 H s       :     0.878345  s :     0.878345

 48 H s       :     0.858506  s :     0.858506

 49 H s       :     0.863101  s :     0.863101

 50 H s       :     0.861085  s :     0.861085

 51 H s       :     0.846430  s :     0.846430

 52 H s       :     0.849473  s :     0.849473

 53 H s       :     0.663494  s :     0.663494

 54 H s       :     0.856633  s :     0.856633

 55 H s       :     0.859275  s :     0.859275

 56 H s       :     0.845575  s :     0.845575

 57 H s       :     0.877639  s :     0.877639

 58 H s       :     0.856550  s :     0.856550

 59 H s       :     0.877914  s :     0.877914

 60 H s       :     0.662380  s :     0.662380

 61 H s       :     0.862219  s :     0.862219

 62 H s       :     0.860822  s :     0.860822

 63 H s       :     0.684132  s :     0.684132

 64 H s       :     0.681788  s :     0.681788

 65 H s       :     0.769784  s :     0.769784

 66 H s       :     0.781706  s :     0.781706

 67 H s       :     0.686580  s :     0.686580

 68 C s       :     0.000025  s :     0.000025
      pz      :     0.000110  p :     0.000508
      px      :     0.000244
      py      :     0.000154
      dz2     :     0.000001  d :     0.000003
      dxz     :     0.000001
      dyz     :     0.000001
      dx2y2   :     0.000000
      dxy     :     0.000001

 69 C s       :     0.000003  s :     0.000003
      pz      :     0.000003  p :     0.000015
      px      :     0.000005
      py      :     0.000006
      dz2     :     0.000000  d :     0.000001
      dxz     :     0.000000
      dyz     :     0.000000
      dx2y2   :     0.000000
      dxy     :     0.000000

 70 C s       :     0.000001  s :     0.000001
      pz      :     0.000001  p :     0.000002
      px      :     0.000001
      py      :     0.000000
      dz2     :     0.000000  d :     0.000000
      dxz     :     0.000000
      dyz     :     0.000000
      dx2y2   :     0.000000
      dxy     :     0.000000

 71 C s       :     0.000000  s :     0.000000
      pz      :     0.000000  p :     0.000000
      px      :     0.000000
      py      :     0.000000
      dz2     :     0.000000  d :     0.000000
      dxz     :     0.000000
      dyz     :     0.000000
      dx2y2   :     0.000000
      dxy     :     0.000000

 72 C s       :     0.000000  s :     0.000000
      pz      :     0.000000  p :     0.000000
      px      :     0.000000
      py      :     0.000000
      dz2     :     0.000000  d :     0.000000
      dxz     :     0.000000
      dyz     :     0.000000
      dx2y2   :     0.000000
      dxy     :     0.000000

 73 C s       :     0.000001  s :     0.000001
      pz      :     0.000000  p :     0.000001
      px      :     0.000001
      py      :     0.000000
      dz2     :     0.000000  d :     0.000000
      dxz     :     0.000000
      dyz     :     0.000000
      dx2y2   :     0.000000
      dxy     :     0.000000

 74 C s       :     0.000001  s :     0.000001
      pz      :     0.000001  p :     0.000004
      px      :     0.000002
      py      :     0.000001
      dz2     :     0.000000  d :     0.000000
      dxz     :     0.000000
      dyz     :     0.000000
      dx2y2   :     0.000000
      dxy     :     0.000000

 75 C s       :     0.000013  s :     0.000013
      pz      :     0.000006  p :     0.000010
      px      :     0.000003
      py      :     0.000001
      dz2     :     0.000000  d :     0.000002
      dxz     :     0.000000
      dyz     :     0.000000
      dx2y2   :     0.000000
      dxy     :     0.000001

 76 C s       :     0.000051  s :     0.000051
      pz      :     0.000103  p :     0.001358
      px      :     0.001049
      py      :     0.000205
      dz2     :     0.000000  d :     0.000006
      dxz     :     0.000001
      dyz     :     0.000001
      dx2y2   :     0.000001
      dxy     :     0.000002

 77 C s       :     0.000014  s :     0.000014
      pz      :     0.000022  p :     0.000061
      px      :     0.000034
      py      :     0.000006
      dz2     :     0.000002  d :     0.000003
      dxz     :     0.000001
      dyz     :     0.000000
      dx2y2   :     0.000000
      dxy     :     0.000000

 78 C s       :     0.000062  s :     0.000062
      pz      :     0.000573  p :     0.001188
      px      :     0.000508
      py      :     0.000106
      dz2     :     0.000001  d :     0.000007
      dxz     :     0.000004
      dyz     :     0.000001
      dx2y2   :     0.000001
      dxy     :     0.000001

 79 C s       :     0.000158  s :     0.000158
      pz      :     0.000212  p :     0.000804
      px      :     0.000354
      py      :     0.000238
      dz2     :     0.000001  d :     0.000006
      dxz     :     0.000002
      dyz     :     0.000001
      dx2y2   :     0.000000
      dxy     :     0.000001

 80 C s       :     0.000048  s :     0.000048
      pz      :     0.000036  p :     0.000161
      px      :     0.000085
      py      :     0.000040
      dz2     :     0.000001  d :     0.000002
      dxz     :     0.000001
      dyz     :     0.000000
      dx2y2   :     0.000000
      dxy     :     0.000000

 81 C s       :     0.000167  s :     0.000167
      pz      :     0.000743  p :     0.002095
      px      :     0.000805
      py      :     0.000547
      dz2     :     0.000001  d :     0.000008
      dxz     :     0.000002
      dyz     :     0.000002
      dx2y2   :     0.000001
      dxy     :     0.000002

 82 C s       :     0.000002  s :     0.000002
      pz      :     0.000003  p :     0.000006
      px      :     0.000001
      py      :     0.000001
      dz2     :     0.000000  d :     0.000000
      dxz     :     0.000000
      dyz     :     0.000000
      dx2y2   :     0.000000
      dxy     :     0.000000

 83 C s       :     0.000003  s :     0.000003
      pz      :     0.000001  p :     0.000004
      px      :     0.000002
      py      :     0.000001
      dz2     :     0.000000  d :     0.000000
      dxz     :     0.000000
      dyz     :     0.000000
      dx2y2   :     0.000000
      dxy     :     0.000000

 84 H s       :     0.002172  s :     0.002172

 85 H s       :     0.000011  s :     0.000011

 86 H s       :     0.000000  s :     0.000000

 87 H s       :     0.000000  s :     0.000000

 88 H s       :     0.000000  s :     0.000000

 89 H s       :     0.014217  s :     0.014217

 90 H s       :     0.013893  s :     0.013893

 91 H s       :     0.003030  s :     0.003030

 92 H s       :     0.009048  s :     0.009048

 93 O s       :     0.000009  s :     0.000009
      pz      :     0.000000  p :     0.000004
      px      :     0.000004
      py      :     0.000000
      dz2     :     0.000000  d :     0.000001
      dxz     :     0.000001
      dyz     :     0.000000
      dx2y2   :     0.000000
      dxy     :     0.000000

 94 O s       :     0.000001  s :     0.000001
      pz      :     0.000000  p :     0.000001
      px      :     0.000000
      py      :     0.000000
      dz2     :     0.000000  d :     0.000000
      dxz     :     0.000000
      dyz     :     0.000000
      dx2y2   :     0.000000
      dxy     :     0.000000

 95 H s       :     0.000000  s :     0.000000



                      *****************************
                      * MAYER POPULATION ANALYSIS *
                      *****************************

  NA   - Mulliken gross atomic population
  ZA   - Total nuclear charge
  QA   - Mulliken gross atomic charge
  VA   - Mayer's total valence
  BVA  - Mayer's bonded valence
  FA   - Mayer's free valence

  ATOM       NA         ZA         QA         VA         BVA        FA
  0 C      6.4564     6.0000    -0.4564     3.8316     3.8316    -0.0000
  1 C      5.8612     6.0000     0.1388     3.8331     3.8331     0.0000
  2 C      5.8955     6.0000     0.1045     3.7841     3.7841    -0.0000
  3 C      5.9941     6.0000     0.0059     3.9136     3.9136    -0.0000
  4 C      6.3127     6.0000    -0.3127     3.8468     3.8468     0.0000
  5 C      5.6449     6.0000     0.3551     3.8328     3.8328     0.0000
  6 O      8.5131     8.0000    -0.5131     1.9124     1.9124     0.0000
  7 O      8.5095     8.0000    -0.5095     1.8883     1.8883     0.0000
  8 C      5.8964     6.0000     0.1036     3.7972     3.7972     0.0000
  9 C      6.3281     6.0000    -0.3281     3.8406     3.8406     0.0000
 10 C      5.7523     6.0000     0.2477     3.7537     3.7537    -0.0000
 11 C      6.3755     6.0000    -0.3755     3.7983     3.7983     0.0000
 12 C      5.9416     6.0000     0.0584     3.8953     3.8953     0.0000
 13 C      5.9560     6.0000     0.0440     3.9171     3.9171     0.0000
 14 C      5.7446     6.0000     0.2554     3.8102     3.8102     0.0000
 15 C      5.9998     6.0000     0.0002     3.7386     3.7386     0.0000
 16 C      5.9889     6.0000     0.0111     3.7262     3.7262    -0.0000
 17 C      5.7749     6.0000     0.2251     3.8317     3.8317     0.0000
 18 O      8.6349     8.0000    -0.6349     1.9139     1.9139    -0.0000
 19 C      5.7034     6.0000     0.2966     3.8539     3.8539    -0.0000
 20 O      8.5059     8.0000    -0.5059     2.0627     2.0627    -0.0000
 21 C      5.9574     6.0000     0.0426     3.9488     3.9488     0.0000
 22 C      5.9811     6.0000     0.0189     3.7894     3.7894    -0.0000
 23 C      5.6679     6.0000     0.3321     3.8047     3.8047     0.0000
 24 O      8.4980     8.0000    -0.4980     2.0446     2.0446    -0.0000
 25 C      5.6804     6.0000     0.3196     3.8224     3.8224    -0.0000
 26 C      6.2003     6.0000    -0.2003     3.8589     3.8589    -0.0000
 27 C      6.1217     6.0000    -0.1217     3.9121     3.9121    -0.0000
 28 C      6.1737     6.0000    -0.1737     3.8837     3.8837    -0.0000
 29 O      8.4435     8.0000    -0.4435     2.0727     2.0727     0.0000
 30 C      6.2182     6.0000    -0.2182     3.7628     3.7628    -0.0000
 31 O      8.6419     8.0000    -0.6419     1.9024     1.9024     0.0000
 32 C      5.6390     6.0000     0.3610     3.7879     3.7879     0.0000
 33 O      8.4240     8.0000    -0.4240     2.0978     2.0978    -0.0000
 34 C      6.0647     6.0000    -0.0647     3.7621     3.7621     0.0000
 35 O      8.6282     8.0000    -0.6282     1.8331     1.8331    -0.0000
 36 O      8.6509     8.0000    -0.6509     1.7817     1.7817    -0.0000
 37 N      7.7163     7.0000    -0.7163     2.7776     2.7776    -0.0000
 38 O      8.6483     8.0000    -0.6483     1.7909     1.7909     0.0000
 39 H      0.8496     1.0000     0.1504     0.9443     0.9443    -0.0000
 40 H      0.8573     1.0000     0.1427     0.9448     0.9448    -0.0000
 41 H      0.8454     1.0000     0.1546     0.9342     0.9342     0.0000
 42 H      0.8917     1.0000     0.1083     0.9345     0.9345     0.0000
 43 H      0.8658     1.0000     0.1342     0.9372     0.9372    -0.0000
 44 H      0.8540     1.0000     0.1460     0.9288     0.9288     0.0000
 45 H      0.8567     1.0000     0.1433     0.9386     0.9386     0.0000
 46 H      0.8305     1.0000     0.1695     0.9352     0.9352     0.0000
 47 H      0.8534     1.0000     0.1466     0.9428     0.9428    -0.0000
 48 H      0.8259     1.0000     0.1741     0.9353     0.9353     0.0000
 49 H      0.8405     1.0000     0.1595     0.9379     0.9379     0.0000
 50 H      0.8403     1.0000     0.1597     0.9479     0.9479    -0.0000
 51 H      0.8157     1.0000     0.1843     0.9280     0.9280     0.0000
 52 H      0.8118     1.0000     0.1882     0.9308     0.9308     0.0000
 53 H      0.5469     1.0000     0.4531     0.8097     0.8097    -0.0000
 54 H      0.8523     1.0000     0.1477     0.9416     0.9416    -0.0000
 55 H      0.8528     1.0000     0.1472     0.9357     0.9357     0.0000
 56 H      0.8318     1.0000     0.1682     0.9453     0.9453     0.0000
 57 H      0.8432     1.0000     0.1568     0.9277     0.9277     0.0000
 58 H      0.8155     1.0000     0.1845     0.9291     0.9291    -0.0000
 59 H      0.8429     1.0000     0.1571     0.9264     0.9264    -0.0000
 60 H      0.5412     1.0000     0.4588     0.8032     0.8032     0.0000
 61 H      0.8326     1.0000     0.1674     0.9227     0.9227    -0.0000
 62 H      0.8278     1.0000     0.1722     0.9292     0.9292    -0.0000
 63 H      0.5800     1.0000     0.4200     0.8128     0.8128     0.0000
 64 H      0.5944     1.0000     0.4056     0.8051     0.8051     0.0000
 65 H      0.6876     1.0000     0.3124     0.8683     0.8683    -0.0000
 66 H      0.7071     1.0000     0.2929     0.8731     0.8731    -0.0000
 67 H      0.6011     1.0000     0.3989     0.8056     0.8056     0.0000
 68 C     -0.0012     0.0000     0.0012    -0.0024    -0.0024    -0.0000
 69 C      0.0000     0.0000    -0.0000     0.0001     0.0001     0.0000
 70 C     -0.0000     0.0000     0.0000    -0.0000    -0.0000     0.0000
 71 C     -0.0000     0.0000     0.0000    -0.0000    -0.0000     0.0000
 72 C     -0.0000     0.0000     0.0000    -0.0000    -0.0000     0.0000
 73 C      0.0000     0.0000    -0.0000     0.0000     0.0000     0.0000
 74 C      0.0000     0.0000    -0.0000     0.0000     0.0000    -0.0000
 75 C      0.0006     0.0000    -0.0006     0.0011     0.0011     0.0000
 76 C     -0.0051     0.0000     0.0051    -0.0102    -0.0102     0.0000
 77 C     -0.0018     0.0000     0.0018    -0.0036    -0.0036    -0.0000
 78 C     -0.0081     0.0000     0.0081    -0.0162    -0.0162     0.0000
 79 C     -0.0009     0.0000     0.0009    -0.0018    -0.0018    -0.0000
 80 C      0.0003     0.0000    -0.0003     0.0006     0.0006     0.0000
 81 C     -0.0028     0.0000     0.0028    -0.0057    -0.0057    -0.0000
 82 C     -0.0001     0.0000     0.0001    -0.0002    -0.0002     0.0000
 83 C      0.0001     0.0000    -0.0001     0.0002     0.0002    -0.0000
 84 H      0.0046     0.0000    -0.0046     0.0092     0.0092     0.0000
 85 H      0.0000     0.0000    -0.0000     0.0000     0.0000     0.0000
 86 H      0.0000     0.0000    -0.0000     0.0000     0.0000     0.0000
 87 H      0.0000     0.0000    -0.0000     0.0000     0.0000     0.0000
 88 H      0.0000     0.0000    -0.0000     0.0000     0.0000     0.0000
 89 H      0.0205     0.0000    -0.0205     0.0406     0.0406    -0.0000
 90 H      0.0314     0.0000    -0.0314     0.0618     0.0618    -0.0000
 91 H      0.0063     0.0000    -0.0063     0.0126     0.0126    -0.0000
 92 H      0.0152     0.0000    -0.0152     0.0302     0.0302     0.0000
 93 O      0.0000     0.0000    -0.0000     0.0000     0.0000     0.0000
 94 O     -0.0000     0.0000     0.0000    -0.0001    -0.0001    -0.0000
 95 H     -0.0000     0.0000     0.0000    -0.0000    -0.0000    -0.0000

  Mayer bond orders larger than 0.100000
B(  0-C ,  1-C ) :   1.0023 B(  0-C , 39-H ) :   0.9324 B(  0-C , 40-H ) :   0.9412 
B(  0-C , 41-H ) :   0.9448 B(  1-C ,  2-C ) :   0.9692 B(  1-C ,  6-O ) :   0.8868 
B(  1-C , 42-H ) :   0.9303 B(  2-C ,  3-C ) :   0.9595 B(  2-C , 38-O ) :   0.9154 
B(  2-C , 43-H ) :   0.9111 B(  3-C ,  4-C ) :   0.9860 B(  3-C , 37-N ) :   1.0337 
B(  3-C , 44-H ) :   0.9308 B(  4-C ,  5-C ) :   0.9972 B(  4-C , 45-H ) :   0.9267 
B(  4-C , 46-H ) :   0.9288 B(  5-C ,  6-O ) :   0.9337 B(  5-C ,  7-O ) :   0.8955 
B(  5-C , 47-H ) :   0.9136 B(  7-O ,  8-C ) :   0.8751 B(  8-C ,  9-C ) :   0.9708 
B(  8-C , 13-C ) :   0.9673 B(  8-C , 48-H ) :   0.8918 B(  9-C , 10-C ) :   0.9767 
B(  9-C , 49-H ) :   0.9193 B(  9-C , 50-H ) :   0.9158 B( 10-C , 11-C ) :   0.9763 
B( 10-C , 32-C ) :   0.8802 B( 10-C , 36-O ) :   0.8733 B( 11-C , 12-C ) :   0.9562 
B( 11-C , 51-H ) :   0.9036 B( 11-C , 52-H ) :   0.9060 B( 12-C , 13-C ) :   1.5358 
B( 12-C , 17-C ) :   1.2399 B( 13-C , 14-C ) :   1.2262 B( 14-C , 15-C ) :   1.2727 
B( 14-C , 31-O ) :   1.0961 B( 15-C , 16-C ) :   1.2589 B( 15-C , 23-C ) :   1.0259 
B( 16-C , 17-C ) :   1.2622 B( 16-C , 19-C ) :   1.0346 B( 17-C , 18-O ) :   1.1162 
B( 18-O , 53-H ) :   0.6229 B( 19-C , 20-O ) :   1.6472 B( 19-C , 21-C ) :   1.0081 
B( 20-O , 53-H ) :   0.1717 B( 21-C , 22-C ) :   1.3678 B( 21-C , 28-C ) :   1.4029 
B( 22-C , 23-C ) :   1.0028 B( 22-C , 25-C ) :   1.2753 B( 23-C , 24-O ) :   1.6186 
B( 24-O , 60-H ) :   0.1812 B( 25-C , 26-C ) :   1.3340 B( 25-C , 29-O ) :   1.0298 
B( 26-C , 27-C ) :   1.4269 B( 26-C , 54-H ) :   0.9133 B( 27-C , 28-C ) :   1.3998 
B( 27-C , 55-H ) :   0.9277 B( 28-C , 56-H ) :   0.9041 B( 29-O , 30-C ) :   0.9127 
B( 30-C , 57-H ) :   0.9276 B( 30-C , 58-H ) :   0.9457 B( 30-C , 59-H ) :   0.9268 
B( 31-O , 60-H ) :   0.6070 B( 32-C , 33-O ) :   1.8702 B( 32-C , 34-C ) :   0.9535 
B( 34-C , 35-O ) :   0.9867 B( 34-C , 61-H ) :   0.8985 B( 34-C , 62-H ) :   0.9011 
B( 35-O , 63-H ) :   0.7188 B( 36-O , 64-H ) :   0.7740 B( 37-N , 65-H ) :   0.8479 
B( 37-N , 66-H ) :   0.8552 B( 38-O , 67-H ) :   0.7831 

-------
TIMINGS
-------

Total SCF time: 0 days 0 hours 16 min 32 sec 

Total time                  ....     992.454 sec
Sum of individual times     ....     960.864 sec  ( 96.8%)

SCF preparation             ....       0.520 sec  (  0.1%)
Fock matrix formation       ....     953.385 sec  ( 96.1%)
  Startup                   ....       0.091 sec  (  0.0% of F)
  Split-RI-J                ....     176.058 sec  ( 18.5% of F)
  Chain of spheres X        ....     722.652 sec  ( 75.8% of F)
  XC integration            ....      85.589 sec  (  9.0% of F)
    Basis function eval.    ....      29.800 sec  ( 34.8% of XC)
    Density eval.           ....      21.043 sec  ( 24.6% of XC)
    XC-Functional eval.     ....       2.515 sec  (  2.9% of XC)
    XC-Potential eval.      ....      28.100 sec  ( 32.8% of XC)
Diagonalization             ....       0.000 sec  (  0.0%)
Density matrix formation    ....       0.523 sec  (  0.1%)
Total Energy calculation    ....       0.180 sec  (  0.0%)
Population analysis         ....       0.284 sec  (  0.0%)
Orbital Transformation      ....       0.785 sec  (  0.1%)
Orbital Orthonormalization  ....       0.000 sec  (  0.0%)
DIIS solution               ....       2.979 sec  (  0.3%)
SOSCF solution              ....       2.208 sec  (  0.2%)
Finished LeanSCF after 992.6 sec

Maximum memory used throughout the entire LEANSCF-calculation: 178.4 MB

-------------------------   --------------------
FINAL SINGLE POINT ENERGY     -1927.425242556434
-------------------------   --------------------


------------------------------------------------------------------------------
                              ORCA PROPERTY CALCULATIONS
------------------------------------------------------------------------------

GBWName                                 ... doxorubicin_dimerbasis_doxorubicin.gbw
Number of atoms                         ...     96
Number of basis functions               ...    876
Max core memory                         ...    800 MB

Electric properties:
Dipole moment                           ... YES
Quadrupole moment                       ...  NO
Static polarizability (Dipole/Dipole)   ...  NO
Static polarizability (Dipole/Quad.)    ...  NO
Static polarizability (Quad./Quad.)     ...  NO
Static polarizability (Velocity)        ...  NO
Static hyperpolarizability              ...  NO

Atomic electric properties:
Dipole moment                           ...  NO
Quadrupole moment                       ...  NO
Static polarizability                   ...  NO

Choice of electric origin               ... Center of mass
Position of electric origin             ...    11.147593     0.105267    -7.202166

General magnetic properties:
Magnetizability                         ...  NO

EPR properties:
g-Tensor (aka g-matrix)                 ...  NO
Zero-Field splitting spin-orbit         ...  NO
Zero-field splitting spin-spin          ...  NO
Hyperfine couplings                     ...  NO (   0 nuclei)
Quadrupole couplings                    ...  NO (   0 nuclei)
Contact density                         ...  NO (   0 nuclei)

NMR properties:
Chemical shifts                         ...  NO (   0 nuclei)
Spin-rotation constants                 ...  NO (   0 nuclei)
Spin-spin couplings                     ...  NO (   0 nuclei,    0 pairs)

Choice of magnetic origin               ... GIAO
Position of magnetic origin             ...     0.000000     0.000000     0.000000

Properties with geometric perturbations:
SCF Hessian                             ...  NO
IR spectrum                             ...  NO
VCD spectrum                            ...  NO
X-ray spectroscopy properties:
SCF XES/XAS/RIXS spectra                ...  NO

SCF SOC stabilization energy            ...  NO
Diagonal Born-Oppenheimer correction    ...  NO

-------------
DIPOLE MOMENT
-------------

Method             : SCF
Type of density    : Electron Density
Multiplicity       :   1
Irrep              :   0
Energy             : -1927.4252425564336590 Eh
Basis              : AO
                                X                 Y                 Z
Electronic contribution:    -15.804711066      25.111844422      16.246458222
Nuclear contribution   :     15.534675575     -24.324153340     -17.227487118
                        -----------------------------------------
Total Dipole Moment    :     -0.270035491       0.787691083      -0.981028896
                        -----------------------------------------
Magnitude (a.u.)       :      1.286776632
Magnitude (Debye)      :      3.270726271



--------------------
Rotational spectrum 
--------------------
 
Rotational constants in cm-1:             0.003967             0.001959             0.001493 
Rotational constants in MHz :           118.941549            58.723100            44.769175 

Dipole components along the rotational axes: 
x,y,z [a.u.] :    -0.740064     0.933215     0.487041 
x,y,z [Debye]:    -1.881093     2.372045     1.237960 

 

Dipole moment calculation done in   0.1 sec 

Maximum memory used throughout the entire PROP-calculation: 91.3 MB

--------------------------------
SUGGESTED CITATIONS FOR THIS RUN
--------------------------------

Below you find a list of papers that are relevant to this ORCA run
We neither can nor want to force you to cite these papers, but we appreciate if you do
You receive ORCA, which is the product of decades of hard work by many enthusiastic individuals, for free
The only thing we kindly ask in return is that you cite our papers,
We deeply appreciate it, if you show your appreciation for ORCA by not just citing the generic ORCA reference.

Please note that relegating all ORCA citations to the supporting information does *not* help us.
SI sections are not indexed - citations you put there will not count into any citation statistics
But we need these citations in order to attract the funding resources that allow us to do what we are doing

Therefore, if you are a happy ORCA user, please consider citing a few of the papers listed below in the main body of your paper

In addition to the list printed below, the program has created the file doxorubicin_dimerbasis_doxorubicin.bibtex that contains the list in bibtex format
You can import this file easily into all common literature databanks and citation aid programs

It goes without saying that in many instances, there are alternative algorithms to achieve similar
results as the ones you have gotten from ORCA. It is, of course, also the case that in some instances
ORCA just re-implements algorithms worked out by others. We are fully aware of that and we are also
fully appreciative of our colleagues work. Hence this citation list should not be read as indicating
that the listed papers, which are focused on our own work, are the only ones worth citing. It simply
meant to make it easier for users to cite ORCA specific papers. It is not a substitute for doing your
own literature research and citing the relevant literature in a scientifically appropriate manner.

List of essential papers. We consider these as the minimum necessary citations

  1. Neese, F.
     Software update: the ORCA program system, version 6.0
     WIRES Comput. Molec. Sci. 2025 15(1), e70019
     doi.org/10.1002/wcms.70019

List of papers to cite with high priority. The work reported in these papers was absolutely
necessary for this run to complete.
Our perspective: the developers of density functionals and basis sets usually get cited in chemistry papers
Good! But without the algorithms to do something with them, the functionals or basis sets would not do anything.
Hence, in our opinion, the algorithm design and method developments papers are equally worthy of getting cited

  1. Neese, F.
     An improvement of the resolution of the identity approximation for the formation of the Coulomb matrix
     J. Comp. Chem. 2003 24(14), 1740-1747
     doi.org/10.1002/jcc.10318
  2. Neese, F.; Wennmohs, F.; Hansen, A.; Becker, U.
     Efficient, approximate and parallel Hartree-Fock and hybrid DFT calculations. A 'chain-of-spheres' algorithm for the Hartree-Fock exchange
     Chem. Phys. 2009 356(1-3), 98-109
     doi.org/10.1016/j.chemphys.2008.10.036
  3. Helmich-Paris, B.; de Souza, B.; Neese, F.; Izsák, R.
     An improved chain of spheres for exchange algorithm
     J. Chem. Phys. 2021 155(10), 104109
     doi.org/10.1063/5.0058766
  4. Neese, F.
     The SHARK Integral Generation and Digestion System
     J. Comp. Chem. 2022 44(3), 381
     doi.org/10.1002/jcc.26942

List of suggested additional citations. These are papers that are important in the 'surrounding' of 
of this run, or papers that preceded the highly important papers. If you like your results we are grateful for a citation.

  1. Izsak, R.; Neese, F.
     An overlap fitted chain of spheres exchange method
     J. Chem. Phys. 2011 135 , 144105
     doi.org/10.1063/1.3646921
  2. Izsak, R.; Hansen, A.; Neese, F.
     The resolution of identity and chain of spheres approximations for the LPNO-CCSD singles Fock term
     Molec. Phys. 2012 110 , 2413-2417
     doi.org/10.1080/00268976.2012.687466
  3. Neese, F.
     The ORCA program system
     WIRES Comput. Molec. Sci. 2012 2(1), 73-78
     doi.org/10.1002/wcms.81
  4. Izsak, R.; Neese, F.; Klopper, W.
     Robust fitting techniques in the chain of spheres approximation to the Fock exchange: The role of the complementary space
     J. Chem. Phys. 2013 139 , 
     doi.org/10.1063/1.4819264
  5. Neese, F.
     Software update: the ORCA program system, version 4.0
     WIRES Comput. Molec. Sci. 2018 8(1), 1-6
     doi.org/10.1002/wcms.1327
  6. Neese, F.; Wennmohs, F.; Becker, U.; Riplinger, C.
     The ORCA quantum chemistry program package
     J. Chem. Phys. 2020 152(22), 224108
     doi.org/10.1063/5.0004608
  7. Neese, F.
     Software update: The ORCA program system—Version 5.0
     WIRES Comput. Molec. Sci. 2022 12(1), e1606
     doi.org/10.1002/wcms.1606

List of optional additional citations

  1. Neese, F.
     Approximate second-order SCF convergence for spin unrestricted wavefunctions
     Chem. Phys. Lett. 2000 325(1-3), 93-98
     doi.org/10.1016/s0009-2614(00)00662-x

Timings for individual modules:

Sum of individual times          ...     1038.119 sec (=  17.302 min)
Startup calculation              ...       30.718 sec (=   0.512 min)   3.0 %
SCF iterations                   ...     1007.054 sec (=  16.784 min)  97.0 %
Property calculations            ...        0.347 sec (=   0.006 min)   0.0 %
                             ****ORCA TERMINATED NORMALLY****
TOTAL RUN TIME: 0 days 0 hours 17 minutes 18 seconds 533 msec
