
                                 *****************
                                 * O   R   C   A *
                                 *****************

                                            #,                                       
                                            ###                                      
                                            ####                                     
                                            #####                                    
                                            ######                                   
                                           ########,                                 
                                     ,,################,,,,,                         
                               ,,#################################,,                 
                          ,,##########################################,,             
                       ,#########################################, ''#####,          
                    ,#############################################,,   '####,        
                  ,##################################################,,,,####,       
                ,###########''''           ''''###############################       
              ,#####''   ,,,,##########,,,,          '''####'''          '####       
            ,##' ,,,,###########################,,,                        '##       
           ' ,,###''''                  '''############,,,                           
         ,,##''                                '''############,,,,        ,,,,,,###''
      ,#''                                            '''#######################'''  
     '                                                          ''''####''''         
             ,#######,   #######,   ,#######,      ##                                
            ,#'     '#,  ##    ##  ,#'     '#,    #''#        ,####,    ,#,          
            ##       ##  ##   ,#'  ##            #'  '#       #'       ,# #          
            ##       ##  #######   ##           ,######,      #####,      #          
            '#,     ,#'  ##    ##  '#,     ,#' ,#      #,     #,   #      #          
             '#######'   ##     ##  '#######'  #'      '#     '####' #    #          



                #########################################################
                #                        -***-                          #
                #          Department of theory and spectroscopy        #
                #                                                       #
                #                      Frank Neese                      #
                #                                                       #
                #     Directorship, Architecture, Infrastructure        #
                #                    SHARK, DRIVERS                     #
                #        Core code/Algorithms in most modules           #
                #                                                       #
                #        Max Planck Institute fuer Kohlenforschung      #
                #                Kaiser Wilhelm Platz 1                 #
                #                 D-45470 Muelheim/Ruhr                 #
                #                      Germany                          #
                #                                                       #
                #                  All rights reserved                  #
                #                        -***-                          #
                #########################################################


                         Program Version 6.1.1  -  RELEASE   -


 With contributions from (in alphabetic order):
[Max-Planck-Institut fuer Kohlenforschung]                               
  Daniel Aravena         : Magnetic Suceptibility                        
  Michael Atanasov       : Ab Initio Ligand Field Theory (pilot matlab implementation)
  Alexander A. Auer      : GIAO ZORA, VPT2 properties, NMR spectrum      
  Ute Becker             : All parallelization in ORCA, NUMFREQ, NUMCALC 
  Giovanni Bistoni       : ED, misc. LED, open-shell LED, HFLD           
  Dmytro Bykov           : pre 5.0 version of the SCF Hessian            
  Marcos Casanova-Páez   : Triplet and SCS-CIS(D). UHF-(DLPNO)-IP/EA/STEOM-CCSD. UHF-CVS-IP/STEOM-CCSD   
  Vijay G. Chilkuri      : MRCI spin determinant printing, contributions to CSF-ICE 
  Pauline Colinet        : FMM embedding                                 
  Dipayan Datta          : RHF DLPNO-CCSD density                        
  Achintya Kumar Dutta   : EOM-CC, STEOM-CC                              
  Nicolas Foglia         : Exact transition moments, OPA infrastructure, MCD improvements    
  Dmitry Ganyushin       : Spin-Orbit,Spin-Spin,Magnetic field MRCI      
  Miquel Garcia-Rates    : C-PCM and meta-GGA Hessian, CCSD/C-PCM, Gaussian charge scheme 
  Tiago L. C. Gouveia    : GS-ROHF, GS-ROCIS                             
  Yang Guo               : DLPNO-NEVPT2, F12-NEVPT2, CIM, IAO-localization        
  Andreas Hansen         : Spin unrestricted coupled pair/coupled cluster methods 
  Ingolf Harden          : AUTO-CI MPn and infrastructure                
  Benjamin Helmich-Paris : MC-RPA, TRAH-(SCF,CASSCF), AVAS, COSX integrals, SCF dyn. polar., MC-PDFT, srDFT 
  Lee Huntington         : MR-EOM, pCC                                   
  Robert Izsak           : Overlap fitted RIJCOSX, COSX-SCS-MP3, EOM     
  Riya Kayal             : Wick's Theorem for AUTO-CI, AUTO-CI UHF-CCSDT 
  Emily Kempfer          : AUTO-CI RHF CISDT and CCSDT, approximate NEVPT4
  Christian Kollmar      : KDIIS, OOCD, Brueckner-CCSD(T), CCSD density, CASPT2, CASPT2-K, improved NEVPT2 
  Axel Koslowski         : Symmetry handling                             
  Simone Kossmann        : meta-GGA functionals, TD-DFT gradient, OOMP2, (MP2 Hessian; deprecated post 5.0) 
  Lucas Lang             : DCDCAS, Hyperfine gauge corrections, ICE-SOC+SSC
  Marvin Lechner         : AUTO-CI (C++ implementation), FIC-MRCC        
  Spencer Leger          : CASSCF response                               
  Dagmar Lenk            : GEPOL surface, SMD, ORCA-2-JSON               
  Dimitrios Liakos       : Extrapolation schemes; Compound Job, Property file
  Dimitrios Manganas     : Further ROCIS development; embedding schemes. LFT, Crystal Embedding 
  Dimitrios Pantazis     : SARC Basis sets                               
  Anastasios Papadopoulos: AUTO-CI, single reference methods and gradients 
  Taras Petrenko         : pre 6.0 DFT Hessian and TD-DFT gradient,  ECA, NRVS 
  Petra Pikulova         : Analytic Raman intensities                    
  Peter Pinski           : DLPNO-MP2, DLPNO-MP2 Gradient                 
  Shashank Vittal Rao    : ES-AILFT, MagRelax                            
  Christoph Reimann      : Effective Core Potentials                     
  Marius Retegan         : Local ZFS, SOC                                
  Christoph Riplinger    : Optimizer, TS searches, QM/MM, DLPNO-CCSD(T), (RO)-DLPNO pert. Triples 
  Michael Roemelt        : Original ROCIS implementation, recursive CI coupling coefficients
  Masaaki Saitow         : Open-shell DLPNO-CCSD energy and density      
  Barbara Sandhoefer     : DKH picture change effects                    
  Yorick L. A. Schmerwitz: GMF and freeze-and-release deltaSCF, NEB S-IDPP initial path                    
  Kantharuban Sivalingam : CASSCF convergence/infrastructure, NEVPT2, NEVPT3, NEVPT4(SD), FIC-MRCI and CEPA variants
  Bernardo de Souza      : ESD, SOC TD-DFT                               
  Georgi L. Stoychev     : AutoAux, RI-MP2 NMR, DLPNO-MP2 response, X2C  
  Van Anh Tran           : RI-MP2 g-tensors                              
  Willem Van den Heuvel  : Paramagnetic NMR                              
  Zikuan Wang            : NOTCH, Electric field optimization            
  Frank Wennmohs         : Technical directorship and infrastructure     
  Hang Xu                : AUTO-CI-Response properties                   
                                                                         
[FACCTs GmbH]                                                            
  Markus Bursch, Nicolas Foglia, Miquel Garcia-Rates, Ingolf Harden, Hagen Neugebauer, Anastasios Papadopoulos, 
  Christoph Riplinger, Bernardo de Souza, Georgi L. Stoychev                                                    
                                                                 
  APM, various basis sets, CI-OPT, improved COSX, DLPNO-Multilevel,           
  DOCKER, DRACO, updates on ESD, Fragmentator, GOAT, IRC, LR-CPCM, L-BFGS, MBIS, meta-GGA TD-DFT gradient, ML-optimized integration grids, 
  MM, NACMEs, nearIR, NEB, NEB-TS, NL-DFT gradient (VV10), 2- and 3-layer-ONIOM, interface openCOSMO-RS, QMMM,   
  Crystal-QMMM, RESP, rigid body optimization, SF, symmetry and pop. for TD-DFT, various functionals, SOLVATOR                                   
                                                                         
[Other institutions]                                                     
  V. Asgeirsson          : NEB                                           
  Christoph Bannwarth    : sTDA-DFT, sTD-DFT, PBEh-3c, B97-3c, D3        
  Giovanni Bistoni       : ETS/NOCV, ADLD/ADEX, COVALED                  
  Martin Brehm           : Molecular dynamics                            
  Ronald Cardenas        : ETS/NOCV                                      
  Martina Colucci        : COVALED                                       
  Sebastian Ehlert       : rSCAN, r2SCAN, r2SCAN-3c, D4, dhf basis sets  
  Marvin Friede          : D4 for Fr, Ra, Ac-Lr                          
  Lars Goerigk           : TD-DFT with DH, B97 family of functionals     
  Stefan Grimme          : VdW corrections, initial TS optimization, DFT functionals, gCP, sTDA/sTD-DF 
  Waldemar Hujo          : DFT-NL                                        
  H. Jonsson             : NEB                                           
  Holger Kruse           : gCP                                           
  Marcel Mueller         : wB97X-3c, vDZP basis set                      
  Hagen Neugebauer       : wr2SCAN, Native XTB                           
  Gianluca Regni         : ADLD/ADEX                                     
  Tobias Risthaus        : pre 6.0 range-separated hybrid DFT and stability analysis
  Lukas Wittmann         : regularized MP2, r2SCAN double-hybrids, wr2SCAN        
                                                                         
We gratefully acknowledge several colleagues who have allowed us to      
interface, adapt or use parts of their codes:                            
  Ed Valeev, F. Pavosevic, A. Kumar             : LibInt (2-el integral package), F12 methods 
  Garnet Chan, S. Sharma, J. Yang, R. Olivares  : DMRG                   
  Ulf Ekstrom                                   : XCFun DFT Library      
  Mihaly Kallay                                 : mrcc  (arbitrary order and MRCC methods)
  Frank Weinhold                                : gennbo (NPA and NBO analysis)           
  Simon Mueller                                 : openCOSMO-RS                            
  Christopher J. Cramer and Donald G. Truhlar   : smd solvation model                     
  S Lehtola, MJT Oliveira, MAL Marques          : LibXC Library                           
  Liviu Ungur et al                             : ANISO software                          


 Your calculation uses the libint2 library for the computation of 2-el integrals
 For citations please refer to: http://libint.valeyev.net

 Your ORCA version has been built with support for libXC version: 7.0.0
 For citations please refer to: https://libxc.gitlab.io

 This ORCA versions uses:
   CBLAS   interface :  Fast vector & matrix operations
   LAPACKE interface :  Fast linear algebra routines
   Shared memory     :  Shared parallel matrices


  ***********************************
  * Starting time: Fri Sep  4 01:10:17 2026
  * Host name:     DESKTOP-VL9OK5A
  * Process ID:    9992
  * Working dir.:  C:\CompChem
  ***********************************

NOTE: MaxCore=800 MB was set to SCF,MP2,MDCI,CIPSI,MRCI,RASCI and CIS
      => If you want to overwrite this, your respective input block should be placed after the MaxCore statement
Warning: RI is on but no J-basis has been assigned. Assigning Def2/J (nothing to worry about!)
================================================================================

----- Orbital basis set information -----
Your calculation utilizes the basis: 6-31G*
   H-He, Li-Ne : W. J. Hehre, R. Ditchfield and J.A. Pople, J. Chem. Phys. 56, 2257 (1972).
                 Note: He and Ne are unpublished basis sets taken from the Gaussian program.
                 Note: Li and B from J. D. Dill and J. A. Pople, J. Chem. Phys. 62, 2921 (1975).
   Na - Ar     : M. M. Francl, W. J. Pietro, W. J. Hehre, J. S. Binkley, M. S. Gordon, 
                 D. J. DeFrees and J. A. Pople, J. Chem. Phys. 77, 3654 (1982).
   Sc - Zn     : V. A. Rassolov, J. A. Pople, M. A. Ratner, and T. L. Windus, J. Chem. Phys. 109, 1223 (1998).
   K,Ca,Ga-Kr  : V.A. Rassolov, M.A. Ratner, J.A. Pople, P.C. Redfern, and L.A. Curtiss, J. Comput. Chem. 22, 976 (2001).
----- AuxJ basis set information -----
Your calculation utilizes the auxiliary basis: def2/J
   H-Rn: F. Weigend, Phys. Chem. Chem. Phys. 8, 1057 (2006).
   Fr-Lr: K. Eichkorn, F. Weigend, O. Treutler, R. Ahlrichs; Theor. Chem. Acc. 97, 119 (1997).

================================================================================
                                        WARNINGS
                       Please study these warnings very carefully!
================================================================================


================================================================================
                                       INPUT FILE
================================================================================
NAME = doxorubicin_dimerbasis_GO.inp
|  1> ! B3LYP 6-31G* SP
|  2> %maxcore 800
|  3> 
|  4> * xyz 0 1
|  5>   C       -0.60306292988360   0.33251663612880   -3.68223729426634
|  6>   C       -1.48881143295596   0.89659283235758   -2.60976131541109
|  7>   C       -1.00365554556704   0.87189661745404   -1.21426568569248
|  8>   C       -1.72630313960671   1.52705072811286   -0.19214825752108
|  9>   C       -1.31483883007530   1.47152966671393   1.12160978838174
| 10>   C       -0.13141990807869   0.77328214587179   1.48251432997823
| 11>   C       0.32540598856466   0.70306848220884   2.82415408503319
| 12>   C       1.50589460434267   0.05016027270042   3.12922404440289
| 13>   C       2.28240516221834   -0.55090847385668   2.11358411119493
| 14>   C       1.86153949372688   -0.50893795423582   0.79152640120716
| 15>   C       2.65526296137724   -1.09292369879020   -0.27462108770709
| 16>   C       2.27050361075889   -1.01256645039902   -1.56912843096542
| 17>   C       1.02834058880603   -0.37094676826210   -1.96354732040912
| 18>   C       0.68868246223750   -0.23083336547217   -3.27867918834189
| 19>   C       0.18506309834849   0.19487491900800   -0.90217067842960
| 20>   C       0.63185698626814   0.14573494222996   0.44988112585141
| 21>   H       -0.68624813386052   0.71712629283256   -4.69841052374440
| 22>   H       -2.19740132283011   1.68737515034592   -2.86530150780920
| 23>   H       -2.63773255176061   2.06098776929097   -0.45293649324165
| 24>   H       -1.89615838184893   1.96107536657989   1.89952545658261
| 25>   H       -0.26065476042473   1.17853996900514   3.60965382611384
| 26>   H       3.21961310461212   -1.03174053978079   2.38039285481716
| 27>   H       3.58283758650602   -1.58698782497577   -0.00021459706902
| 28>   H       2.88621456267703   -1.44126175399224   -2.35657209397153
| 29>   H       1.38713255955194   -0.52417795015041   -4.05684140033782
| 30>   O       -1.78785673852912   -0.36215636314299   -3.22854845748921
| 31>   O       1.99603281922826   -0.04547409959703   4.40209225264528
| 32>   H       1.38420774239225   0.40246834692798   5.00757518918786
| 33>   C :   8.84227285630085   -5.50845299988359   -6.38756636495780
| 34>   C :   8.98324890707044   -4.27825066928059   -5.48782398527885
| 35>   C :   9.64536012401062   -3.04951113313160   -6.14796598094897
| 36>   C :   8.76414180191321   -2.36824347977859   -7.23465936861870
| 37>   C :   7.27030088506789   -2.55427080898952   -6.89130250761496
| 38>   C :   7.02351588197875   -2.80056474017495   -5.40811930233384
| 39>   O :   7.70615670147521   -3.94073344962880   -4.90933046927641
| 40>   O :   7.39142967225933   -1.61787266323707   -4.71407607835113
| 41>   C :   6.94230349417397   -1.53817474329830   -3.35466151481496
| 42>   C :   8.13727537622270   -1.79944451670994   -2.42092973532643
| 43>   C :   8.00751834134722   -1.13505607638273   -1.05149764452590
| 44>   C :   7.88092431665663   0.37772161861963   -1.24403174264528
| 45>   C :   6.76174051062799   0.72856305259431   -2.19897482202392
| 46>   C :   6.30164853449043   -0.17059178112397   -3.15102876208257
| 47>   C :   5.17965785002419   0.16888424255484   -3.96714766214827
| 48>   C :   4.58581866052500   1.44143346473881   -3.87408057395465
| 49>   C :   5.10074723208672   2.37971595389720   -2.93452724716103
| 50>   C :   6.16799065350727   2.01871041268159   -2.09429397725395
| 51>   O :   6.67532491424741   2.85275740926912   -1.17399749858725
| 52>   C :   4.51001100324547   3.70549273183660   -2.81934322535933
| 53>   O :   4.93755731326109   4.54407494601151   -1.99773706921791
| 54>   C :   3.36824203674367   4.05844877007517   -3.70552494317499
| 55>   C :   2.83645421378483   3.12379041844690   -4.62805271809499
| 56>   C :   3.44308876411120   1.77453689227495   -4.73857513781641
| 57>   O :   3.00581040878704   0.92720227795222   -5.54677046143900
| 58>   C :   1.72795867195508   3.52910327913788   -5.42779156687316
| 59>   C :   1.21467637248587   4.83041987562802   -5.29424852581645
| 60>   C :   1.76745608199946   5.72562584419660   -4.38169965008191
| 61>   C :   2.83964336660774   5.34575318412550   -3.58246554927261
| 62>   O :   1.20371954427959   2.63411900875182   -6.29226594148832
| 63>   C :   0.13682042073179   3.02959979258051   -7.14686022886841
| 64>   O :   4.70893431202151   -0.77854322536999   -4.79139216322299
| 65>   C :   6.85175832036721   -1.74177125459285   -0.22627820542402
| 66>   O :   6.32530423277993   -2.79881225178210   -0.54335912863253
| 67>   C :   6.43430237229540   -1.08683524545802   1.08571092415197
| 68>   O :   5.51340610289999   -1.89779493003604   1.77320450479194
| 69>   O :   9.18492030227368   -1.34006874451563   -0.25524151736406
| 70>   N :   9.00391810083780   -2.79173779130597   -8.61641542907574
| 71>   O :   10.89769813846286   -3.38786231843562   -6.74434909255825
| 72>   H :   9.81480009668485   -5.78764952724792   -6.80568315441790
| 73>   H :   8.14629543938658   -5.33456119730561   -7.21431944008694
| 74>   H :   8.45425428037938   -6.34916391428442   -5.80294718104444
| 75>   H :   9.61375389632476   -4.56632177774278   -4.63256940162256
| 76>   H :   9.79720513050016   -2.30987555431100   -5.35031633507376
| 77>   H :   9.00416235570335   -1.29963821864770   -7.19854301258398
| 78>   H :   6.87791778632318   -3.42018083385499   -7.43799065815481
| 79>   H :   6.68774933648106   -1.68638777514248   -7.21142301169643
| 80>   H :   5.96572564119305   -3.00628741355938   -5.21510067343771
| 81>   H :   6.17647513591066   -2.30437823137910   -3.18468830196898
| 82>   H :   9.03617392077481   -1.38677076551132   -2.89239041056245
| 83>   H :   8.27067564579521   -2.88175870817701   -2.32389820216414
| 84>   H :   8.84543343485798   0.73792182740997   -1.62747056722519
| 85>   H :   7.73387048486398   0.89299100513903   -0.29104212305958
| 86>   H :   6.14756008152178   3.69834256329298   -1.24390553505622
| 87>   H :   0.37545627345505   5.14637249878571   -5.90178899891426
| 88>   H :   1.34999067020226   6.72528400958059   -4.29687716696259
| 89>   H :   3.28206611332635   6.02121976701279   -2.85978674729115
| 90>   H :   0.42970267014490   3.86477237113466   -7.79565691671474
| 91>   H :   -0.08088388454889   2.15372207731747   -7.75977392460237
| 92>   H :   -0.75841601295599   3.30566443489361   -6.57504900349653
| 93>   H :   3.95113271381001   -0.34966745099301   -5.28981240242162
| 94>   H :   5.98680989286537   -0.10504412000606   0.86739540537148
| 95>   H :   7.33511646685103   -0.90438027062917   1.68992747722844
| 96>   H :   5.41350468151117   -2.70098841990550   1.22397263514998
| 97>   H :   9.39415266800356   -2.28934326852395   -0.27987971708212
| 98>   H :   10.00108252742637   -2.70783909498566   -8.80919764002986
| 99>   H :   8.79290112827011   -3.78413474431796   -8.71582521065891
|100>   H :   11.52604935482465   -3.58143666541257   -6.03139391166726
|101> *
|102> 
|103>                          ****END OF INPUT****
================================================================================

                       ****************************
                       * Single Point Calculation *
                       ****************************

---------------------------------
CARTESIAN COORDINATES (ANGSTROEM)
---------------------------------
  C     -0.603063    0.332517   -3.682237
  C     -1.488811    0.896593   -2.609761
  C     -1.003656    0.871897   -1.214266
  C     -1.726303    1.527051   -0.192148
  C     -1.314839    1.471530    1.121610
  C     -0.131420    0.773282    1.482514
  C      0.325406    0.703068    2.824154
  C      1.505895    0.050160    3.129224
  C      2.282405   -0.550908    2.113584
  C      1.861539   -0.508938    0.791526
  C      2.655263   -1.092924   -0.274621
  C      2.270504   -1.012566   -1.569128
  C      1.028341   -0.370947   -1.963547
  C      0.688682   -0.230833   -3.278679
  C      0.185063    0.194875   -0.902171
  C      0.631857    0.145735    0.449881
  H     -0.686248    0.717126   -4.698411
  H     -2.197401    1.687375   -2.865302
  H     -2.637733    2.060988   -0.452936
  H     -1.896158    1.961075    1.899525
  H     -0.260655    1.178540    3.609654
  H      3.219613   -1.031741    2.380393
  H      3.582838   -1.586988   -0.000215
  H      2.886215   -1.441262   -2.356572
  H      1.387133   -0.524178   -4.056841
  O     -1.787857   -0.362156   -3.228548
  O      1.996033   -0.045474    4.402092
  H      1.384208    0.402468    5.007575
  C      8.842273   -5.508453   -6.387566
  C      8.983249   -4.278251   -5.487824
  C      9.645360   -3.049511   -6.147966
  C      8.764142   -2.368243   -7.234659
  C      7.270301   -2.554271   -6.891303
  C      7.023516   -2.800565   -5.408119
  O      7.706157   -3.940733   -4.909330
  O      7.391430   -1.617873   -4.714076
  C      6.942303   -1.538175   -3.354662
  C      8.137275   -1.799445   -2.420930
  C      8.007518   -1.135056   -1.051498
  C      7.880924    0.377722   -1.244032
  C      6.761741    0.728563   -2.198975
  C      6.301649   -0.170592   -3.151029
  C      5.179658    0.168884   -3.967148
  C      4.585819    1.441433   -3.874081
  C      5.100747    2.379716   -2.934527
  C      6.167991    2.018710   -2.094294
  O      6.675325    2.852757   -1.173997
  C      4.510011    3.705493   -2.819343
  O      4.937557    4.544075   -1.997737
  C      3.368242    4.058449   -3.705525
  C      2.836454    3.123790   -4.628053
  C      3.443089    1.774537   -4.738575
  O      3.005810    0.927202   -5.546770
  C      1.727959    3.529103   -5.427792
  C      1.214676    4.830420   -5.294249
  C      1.767456    5.725626   -4.381700
  C      2.839643    5.345753   -3.582466
  O      1.203720    2.634119   -6.292266
  C      0.136820    3.029600   -7.146860
  O      4.708934   -0.778543   -4.791392
  C      6.851758   -1.741771   -0.226278
  O      6.325304   -2.798812   -0.543359
  C      6.434302   -1.086835    1.085711
  O      5.513406   -1.897795    1.773205
  O      9.184920   -1.340069   -0.255242
  N      9.003918   -2.791738   -8.616415
  O     10.897698   -3.387862   -6.744349
  H      9.814800   -5.787650   -6.805683
  H      8.146295   -5.334561   -7.214319
  H      8.454254   -6.349164   -5.802947
  H      9.613754   -4.566322   -4.632569
  H      9.797205   -2.309876   -5.350316
  H      9.004162   -1.299638   -7.198543
  H      6.877918   -3.420181   -7.437991
  H      6.687749   -1.686388   -7.211423
  H      5.965726   -3.006287   -5.215101
  H      6.176475   -2.304378   -3.184688
  H      9.036174   -1.386771   -2.892390
  H      8.270676   -2.881759   -2.323898
  H      8.845433    0.737922   -1.627471
  H      7.733870    0.892991   -0.291042
  H      6.147560    3.698343   -1.243906
  H      0.375456    5.146372   -5.901789
  H      1.349991    6.725284   -4.296877
  H      3.282066    6.021220   -2.859787
  H      0.429703    3.864772   -7.795657
  H     -0.080884    2.153722   -7.759774
  H     -0.758416    3.305664   -6.575049
  H      3.951133   -0.349667   -5.289812
  H      5.986810   -0.105044    0.867395
  H      7.335116   -0.904380    1.689927
  H      5.413505   -2.700988    1.223973
  H      9.394153   -2.289343   -0.279880
  H     10.001083   -2.707839   -8.809198
  H      8.792901   -3.784135   -8.715825
  H     11.526049   -3.581437   -6.031394

----------------------------
CARTESIAN COORDINATES (A.U.)
----------------------------
  NO LB      ZA    FRAG     MASS         X           Y           Z
   0 C     6.0000    0    12.011   -1.139624    0.628365   -6.958420
   1 C     6.0000    0    12.011   -2.813446    1.694315   -4.931734
   2 C     6.0000    0    12.011   -1.896634    1.647646   -2.294630
   3 C     6.0000    0    12.011   -3.262240    2.885708   -0.363108
   4 C     6.0000    0    12.011   -2.484685    2.780788    2.119535
   5 C     6.0000    0    12.011   -0.248348    1.461291    2.801546
   6 C     6.0000    0    12.011    0.614928    1.328607    5.336878
   7 C     6.0000    0    12.011    2.845728    0.094789    5.913376
   8 C     6.0000    0    12.011    4.313121   -1.041066    3.994095
   9 C     6.0000    0    12.011    3.517800   -0.961753    1.495768
  10 C     6.0000    0    12.011    5.017720   -2.065326   -0.518959
  11 C     6.0000    0    12.011    4.290630   -1.913473   -2.965223
  12 C     6.0000    0    12.011    1.943282   -0.700988   -3.710567
  13 C     6.0000    0    12.011    1.301421   -0.436212   -6.195806
  14 C     6.0000    0    12.011    0.349719    0.368260   -1.704856
  15 C     6.0000    0    12.011    1.194037    0.275399    0.850152
  16 H     1.0000    0     1.008   -1.296821    1.355172   -8.878709
  17 H     1.0000    0     1.008   -4.152487    3.188677   -5.414635
  18 H     1.0000    0     1.008   -4.984592    3.894702   -0.855926
  19 H     1.0000    0     1.008   -3.583220    3.705895    3.589583
  20 H     1.0000    0     1.008   -0.492566    2.227118    6.821257
  21 H     1.0000    0     1.008    6.084187   -1.949707    4.498291
  22 H     1.0000    0     1.008    6.770582   -2.998972   -0.000406
  23 H     1.0000    0     1.008    5.454155   -2.723590   -4.453276
  24 H     1.0000    0     1.008    2.621301   -0.990553   -7.666319
  25 O     8.0000    0    15.999   -3.378560   -0.684376   -6.101072
  26 O     8.0000    0    15.999    3.771955   -0.085934    8.318749
  27 H     1.0000    0     1.008    2.615774    0.760555    9.462946
  28 C     0.0000    0     0.000   16.709474  -10.409468  -12.070751
  29 C     0.0000    0     0.000   16.975880   -8.084722  -10.370484
  30 C     0.0000    0     0.000   18.227089   -5.762741  -11.617972
  31 C     0.0000    0     0.000   16.561828   -4.475332  -13.671525
  32 C     0.0000    0     0.000   13.738878   -4.826872  -13.022674
  33 C     0.0000    0     0.000   13.272522   -5.292300  -10.219864
  34 O     0.0000    0     0.000   14.562526   -7.446907   -9.277290
  35 O     0.0000    0     0.000   13.967778   -3.057336   -8.908313
  36 C     0.0000    0     0.000   13.119052   -2.906729   -6.339392
  37 C     0.0000    0     0.000   15.377222   -3.400457   -4.574894
  38 C     0.0000    0     0.000   15.132017   -2.144945   -1.987043
  39 C     0.0000    0     0.000   14.892789    0.713790   -2.350879
  40 C     0.0000    0     0.000   12.777838    1.376785   -4.155460
  41 C     0.0000    0     0.000   11.908390   -0.322372   -5.954581
  42 C     0.0000    0     0.000    9.788135    0.319145   -7.496823
  43 C     0.0000    0     0.000    8.665941    2.723914   -7.320951
  44 C     0.0000    0     0.000    9.639015    4.497011   -5.545453
  45 C     0.0000    0     0.000   11.655813    3.814810   -3.957642
  46 O     0.0000    0     0.000   12.614536    5.390930   -2.218534
  47 C     0.0000    0     0.000    8.522686    7.002366   -5.327787
  48 O     0.0000    0     0.000    9.330631    8.587057   -3.775176
  49 C     0.0000    0     0.000    6.365055    7.669357   -7.002427
  50 C     0.0000    0     0.000    5.360122    5.903108   -8.745752
  51 C     0.0000    0     0.000    6.506495    3.353389   -8.954609
  52 O     0.0000    0     0.000    5.680158    1.752158  -10.481877
  53 C     0.0000    0     0.000    3.265369    6.669039  -10.257040
  54 C     0.0000    0     0.000    2.295406    9.128171  -10.004680
  55 C     0.0000    0     0.000    3.340008   10.819865   -8.280212
  56 C     0.0000    0     0.000    5.366148   10.102009   -6.769879
  57 O     0.0000    0     0.000    2.274700    4.977764  -11.890659
  58 C     0.0000    0     0.000    0.258553    5.725114  -13.505609
  59 O     0.0000    0     0.000    8.898596   -1.471233   -9.054419
  60 C     0.0000    0     0.000   12.947947   -3.291471   -0.427604
  61 O     0.0000    0     0.000   11.953093   -5.288989   -1.026800
  62 C     0.0000    0     0.000   12.159069   -2.053821    2.051696
  63 O     0.0000    0     0.000   10.418828   -3.586313    3.350871
  64 O     0.0000    0     0.000   17.356984   -2.532363   -0.482337
  65 N     0.0000    0     0.000   17.014939   -5.275620  -16.282665
  66 O     0.0000    0     0.000   20.593665   -6.402132  -12.744973
  67 H     0.0000    0     0.000   18.547284  -10.937073  -12.860877
  68 H     0.0000    0     0.000   15.394267  -10.080860  -13.633088
  69 H     0.0000    0     0.000   15.976225  -11.998181  -10.965981
  70 H     0.0000    0     0.000   18.167362   -8.629098   -8.754287
  71 H     0.0000    0     0.000   18.514035   -4.365032  -10.110633
  72 H     0.0000    0     0.000   17.015401   -2.455960  -13.603275
  73 H     0.0000    0     0.000   12.997381   -6.463205  -14.055765
  74 H     0.0000    0     0.000   12.638015   -3.186811  -13.627615
  75 H     0.0000    0     0.000   11.273588   -5.681060   -9.855112
  76 H     0.0000    0     0.000   11.671846   -4.354644   -6.018189
  77 H     0.0000    0     0.000   17.075894   -2.620617   -5.465826
  78 H     0.0000    0     0.000   15.629312   -5.445735   -4.391531
  79 H     0.0000    0     0.000   16.715447    1.394470   -3.075474
  80 H     0.0000    0     0.000   14.614897    1.687508   -0.549990
  81 H     0.0000    0     0.000   11.617205    6.988855   -2.350641
  82 H     0.0000    0     0.000    0.709510    9.725235  -11.152765
  83 H     0.0000    0     0.000    2.551113   12.708945   -8.119921
  84 H     0.0000    0     0.000    6.202206   11.378456   -5.404214
  85 H     0.0000    0     0.000    0.812020    7.303361  -14.731657
  86 H     0.0000    0     0.000   -0.152848    4.069945  -14.663848
  87 H     0.0000    0     0.000   -1.433199    6.246800  -12.425042
  88 H     0.0000    0     0.000    7.466559   -0.660776   -9.996297
  89 H     0.0000    0     0.000   11.313431   -0.198505    1.639140
  90 H     0.0000    0     0.000   13.861361   -1.709031    3.193500
  91 H     0.0000    0     0.000   10.230041   -5.104128    2.312973
  92 H     0.0000    0     0.000   17.752376   -4.326232   -0.528896
  93 H     0.0000    0     0.000   18.899307   -5.117074  -16.646971
  94 H     0.0000    0     0.000   16.616175   -7.150978  -16.470523
  95 H     0.0000    0     0.000   21.781077   -6.767934  -11.397683

--------------------------------
INTERNAL COORDINATES (ANGSTROEM)
--------------------------------
 C      0   0   0     0.000000000000     0.00000000     0.00000000
 C      1   0   0     1.500978711064     0.00000000     0.00000000
 C      2   1   0     1.477631276964   118.34407616     0.00000000
 C      3   2   1     1.412858977696   120.50012137   172.61701964
 C      4   3   2     1.377804655766   121.22348596   177.53692110
 C      5   4   3     1.420662533273   120.71732752     1.30686506
 C      6   5   4     1.419019764046   122.18642611   179.60696556
 C      7   6   5     1.383079962307   120.44279069   182.11304375
 C      8   7   6     1.412719631953   120.75838194     0.39365516
 C      9   8   7     1.388065569046   120.34564998   359.19686786
 C     10   9   8     1.451794324641   121.43385591   178.62282398
 C     11  10   9     1.352865960473   121.55424842   182.34608320
 C     12  11  10     1.452656549210   121.95350336   358.34595779
 C     13  12  11     1.365493038663   121.30030316   176.28426636
 C      3   2   1     1.403144215011   119.75447179   352.74017991
 C     15   3   2     1.424810021392   119.56224097   181.53613682
 H      1   2   3     1.089702894599   119.24967754   207.73499209
 H      2   1   3     1.092125036983   119.19624086   151.89431399
 H      4   3   2     1.088027040644   118.85664875   359.15881280
 H      5   4   3     1.087538597184   120.28354812   181.50937879
 H      7   6   5     1.089288841171   119.14268001     1.51556039
 H      9   8   7     1.086620959019   119.06644888   178.24316127
 H     11  10   9     1.086182750770   117.66678358     1.41287598
 H     12  11  10     1.087633744439   120.55419303   178.95500705
 H     14  13  12     1.086011055182   120.15984135   354.77243268
 O      2   1   3     1.434146142888    58.99679680   253.30362058
 O      8   7   6     1.367323984435   122.97760507   179.80632224
 H     27   8   7     0.970356607897   108.81838175     0.39017511
 C     24  12  11     8.262299307119   162.81091355     6.05477178
 C     29  24  12     1.530623523569    51.97286496   295.90938698
 C     30  29  24     1.544014108012   115.32697065   236.83486660
 C     31  30  29     1.556140695924   113.83671033    69.93426995
 C     32  31  30     1.544040409462   109.86695879    30.24297245
 C     33  32  31     1.523612798160   113.11999929    23.65366328
 O     34  33  32     1.419427164191   113.20533123   301.77313592
 O     34  33  32     1.419794739632   107.41158900    65.79040936
 C     36  34  33     1.433901683463   115.37710151   165.97285495
 C     37  36  34     1.538855005974   108.81953057   104.77879308
 C     38  37  36     1.527610270669   113.83727730   152.83469426
 C     39  38  37     1.530226055367   108.91684844   300.52172244
 C     40  39  38     1.512474260384   111.71423164    53.54554011
 C     41  40  39     1.388009634796   121.87615597   336.24098699
 C     42  41  40     1.428340689656   119.88964699   175.51654864
 C     43  42  41     1.407369172879   120.56860565     4.00236253
 C     44  43  42     1.424179032692   119.12889715   358.71419644
 C     45  44  43     1.405462724234   119.98207528   358.53105367
 O     46  45  44     1.341628880609   122.51729885   181.31818324
 C     45  44  43     1.455994751319   120.35764245   179.76891186
 O     48  45  44     1.249420927049   121.62339238   179.55583344
 C     48  45  44     1.487794466580   118.70244388   359.65228525
 C     50  48  45     1.416842270126   121.28988564     1.35777962
 C     44  43  42     1.471101750574   119.58037513   179.13652635
 O     52  44  43     1.249947194801   119.88211751     0.12713616
 C     51  50  48     1.425700917985   118.00344568   178.99919554
 C     54  51  50     1.405246365255   119.60061351     0.90912352
 C     55  54  51     1.392732775523   120.83214763   359.41391604
 C     56  55  54     1.390202848163   120.47503865   359.91242635
 O     54  51  50     1.350236813152   118.20154061   181.09336741
 C     58  54  51     1.423028526147   119.43084551   182.86579544
 O     43  42  41     1.341110902856   117.32113327   185.42369985
 C     39  38  37     1.544302967762   111.82260572    66.36338575
 O     61  39  38     1.222714148090   121.55385269    14.34467632
 C     61  39  38     1.524639669157   119.73468883   188.55793611
 O     63  61  39     1.406539360423   110.62222755   188.85069775
 O     39  38  37     1.436081262231   111.42743153   183.71354855
 N     32  31  30     1.464953895531   116.06694834   265.40557204
 O     31  30  29     1.427762180075   111.47744949   307.48324843
 H     29  24  12     1.094797508131   162.21807743   289.27718446
 H     29  24  12     1.094597447053    80.32508651   167.87885531
 H     29  24  12     1.095049244122    82.06944428    58.55436379
 H     30  29  24     1.100900498624   107.40378477   117.48531199
 H     31  30  29     1.098345416077   106.54035858   187.49223689
 H     32  31  30     1.095824557825   106.25237445   147.76204426
 H     33  32  31     1.096646069287   109.29580523   264.00150820
 H     33  32  31     1.093190012914   110.78105660   146.50177470
 H     34  33  32     1.094759426973   111.00894251   184.50864083
 H     37  36  34     1.096563610810   109.07867738   345.67648838
 H     38  37  36     1.095715924234   108.18135117    34.10622139
 H     38  37  36     1.094812659500   108.43565649   277.10726320
 H     40  39  38     1.098657071930   107.18160266   292.14063189
 H     40  39  38     1.093305348550   111.55386204   177.08525727
 H     47  46  45     0.999218246896   106.16255308     0.00000000
 H     55  54  51     1.083153664606   119.98824476   179.73208043
 H     56  55  54     1.086641003878   119.33936309   180.13680678
 H     57  56  55     1.083631691233   121.86788146   180.48570202
 H     59  58  54     1.097374316334   111.49804276    59.63588904
 H     59  58  54     1.090972105533   105.30036231   178.17917092
 H     59  58  54     1.097555482151   111.62692168   296.77167903
 H     60  43  42     1.003304752776   105.57185465   181.51018622
 H     63  61  39     1.100829232398   108.89056699    67.62692626
 H     63  61  39     1.099924312760   108.64617283   311.31058267
 H     64  63  61     0.978138907719   105.41785472     2.16332963
 H     65  39  38     0.972372020209   107.56189482   310.45168445
 H     66  32  31     1.019088252193   108.34766468   307.94505321
 H     66  32  31     1.019442092389   109.84707734    62.50682465
 H     67  31  30     0.969846054212   107.97002730   290.38091580

---------------------------
INTERNAL COORDINATES (A.U.)
---------------------------
 C      0   0   0     0.000000000000     0.00000000     0.00000000
 C      1   0   0     2.836438696758     0.00000000     0.00000000
 C      2   1   0     2.792318440378   118.34407616     0.00000000
 C      3   2   1     2.669916533697   120.50012137   172.61701964
 C      4   3   2     2.603673465440   121.22348596   177.53692110
 C      5   4   3     2.684663116610   120.71732752     1.30686506
 C      6   5   4     2.681558732668   122.18642611   179.60696556
 C      7   6   5     2.613642350074   120.44279069   182.11304375
 C      8   7   6     2.669653208406   120.75838194     0.39365516
 C      9   8   7     2.623063781422   120.34564998   359.19686786
 C     10   9   8     2.743493676353   121.43385591   178.62282398
 C     11  10   9     2.556546161199   121.55424842   182.34608320
 C     12  11  10     2.745123044654   121.95350336   358.34595779
 C     13  12  11     2.580407880849   121.30030316   176.28426636
 C      3   2   1     2.651558292766   119.75447179   352.74017991
 C     15   3   2     2.692500733298   119.56224097   181.53613682
 H      1   2   3     2.059240038134   119.24967754   207.73499209
 H      2   1   3     2.063817223897   119.19624086   151.89431399
 H      4   3   2     2.056073133117   118.85664875   359.15881280
 H      5   4   3     2.055150108746   120.28354812   181.50937879
 H      7   6   5     2.058457590550   119.14268001     1.51556039
 H      9   8   7     2.053416023925   119.06644888   178.24316127
 H     11  10   9     2.052587930345   117.66678358     1.41287598
 H     12  11  10     2.055329911002   120.55419303   178.95500705
 H     14  13  12     2.052263472704   120.15984135   354.77243268
 O      2   1   3     2.710143446077    58.99679680   253.30362058
 O      8   7   6     2.583867866923   122.97760507   179.80632224
 H     27   8   7     1.833708241165   108.81838175     0.39017511
 C     24  12  11    15.613482926943   162.81091355     6.05477178
 C     29  24  12     2.892459273682    51.97286496   295.90938698
 C     30  29  24     2.917763811054   115.32697065   236.83486660
 C     31  30  29     2.940679741146   113.83671033    69.93426995
 C     32  31  30     2.917813513592   109.86695879    30.24297245
 C     33  32  31     2.879210922660   113.11999929    23.65366328
 O     34  33  32     2.682328607369   113.20533123   301.77313592
 O     34  33  32     2.683023224286   107.41158900    65.79040936
 C     36  34  33     2.709681484714   115.37710151   165.97285495
 C     37  36  34     2.908014521105   108.81953057   104.77879308
 C     38  37  36     2.886765050930   113.83727730   152.83469426
 C     39  38  37     2.891708167633   108.91684844   300.52172244
 C     40  39  38     2.858162136730   111.71423164    53.54554011
 C     41  40  39     2.622958081008   121.87615597   336.24098699
 C     42  41  40     2.699172729386   119.88964699   175.51654864
 C     43  42  41     2.659542306065   120.56860565     4.00236253
 C     44  43  42     2.691308337462   119.12889715   358.71419644
 C     45  44  43     2.655939640238   119.98207528   358.53105367
 O     46  45  44     2.535311157710   122.51729885   181.31818324
 C     45  44  43     2.751431332419   120.35764245   179.76891186
 O     48  45  44     2.361063378113   121.62339238   179.55583344
 C     48  45  44     2.811524085400   118.70244388   359.65228525
 C     50  48  45     2.677443865501   121.28988564     1.35777962
 C     44  43  42     2.779979423716   119.58037513   179.13652635
 O     52  44  43     2.362057880036   119.88211751     0.12713616
 C     51  50  48     2.694184283872   118.00344568   178.99919554
 C     54  51  50     2.655530781021   119.60061351     0.90912352
 C     55  54  51     2.631883523474   120.83214763   359.41391604
 C     56  55  54     2.627102653626   120.47503865   359.91242635
 O     54  51  50     2.551577792796   118.20154061   181.09336741
 C     58  54  51     2.689134195175   119.43084551   182.86579544
 O     43  42  41     2.534332321614   117.32113327   185.42369985
 C     39  38  37     2.918309676872   111.82260572    66.36338575
 O     61  39  38     2.310594879961   121.55385269    14.34467632
 C     61  39  38     2.881151427619   119.73468883   188.55793611
 O     63  61  39     2.657974187780   110.62222755   188.85069775
 O     39  38  37     2.713800291673   111.42743153   183.71354855
 N     32  31  30     2.768361661375   116.06694834   265.40557204
 O     31  30  29     2.698079504711   111.47744949   307.48324843
 H     29  24  12     2.068867462467   162.21807743   289.27718446
 H     29  24  12     2.068489401819    80.32508651   167.87885531
 H     29  24  12     2.069343174548    82.06944428    58.55436379
 H     30  29  24     2.080400443096   107.40378477   117.48531199
 H     31  30  29     2.075572036834   106.54035858   187.49223689
 H     32  31  30     2.070808305114   106.25237445   147.76204426
 H     33  32  31     2.072360736795   109.29580523   264.00150820
 H     33  32  31     2.065829736744   110.78105660   146.50177470
 H     34  33  32     2.068795499508   111.00894251   184.50864083
 H     37  36  34     2.072204912855   109.07867738   345.67648838
 H     38  37  36     2.070603017379   108.18135117    34.10622139
 H     38  37  36     2.068896094404   108.43565649   277.10726320
 H     40  39  38     2.076160981043   107.18160266   292.14063189
 H     40  39  38     2.066047689510   111.55386204   177.08525727
 H     47  46  45     1.888248834651   106.16255308     0.00000000
 H     55  54  51     2.046863787059   119.98824476   179.73208043
 H     56  55  54     2.053453903218   119.33936309   180.13680678
 H     57  56  55     2.047767126469   121.86788146   180.48570202
 H     59  58  54     2.073736924271   111.49804276    59.63588904
 H     59  58  54     2.061638499204   105.30036231   178.17917092
 H     59  58  54     2.074079278048   111.62692168   296.77167903
 H     60  43  42     1.895971211608   105.57185465   181.51018622
 H     63  61  39     2.080265769448   108.89056699    67.62692626
 H     63  61  39     2.078555719159   108.64617283   311.31058267
 H     64  63  61     1.848414656523   105.41785472     2.16332963
 H     65  39  38     1.837516818483   107.56189482   310.45168445
 H     66  32  31     1.925797702942   108.34766468   307.94505321
 H     66  32  31     1.926466364006   109.84707734    62.50682465
 H     67  31  30     1.832743434524   107.97002730   290.38091580

---------------------
BASIS SET INFORMATION
---------------------
There are 4 groups of distinct atoms

 Group   1 Type C   : 10s4p1d contracted to 3s2p1d pattern {631/31/1}
 Group   2 Type H   : 4s contracted to 2s pattern {31}
 Group   3 Type O   : 10s4p1d contracted to 3s2p1d pattern {631/31/1}
 Group   4 Type N   : 10s4p1d contracted to 3s2p1d pattern {631/31/1}

Atom   0C    basis set group =>   1
Atom   1C    basis set group =>   1
Atom   2C    basis set group =>   1
Atom   3C    basis set group =>   1
Atom   4C    basis set group =>   1
Atom   5C    basis set group =>   1
Atom   6C    basis set group =>   1
Atom   7C    basis set group =>   1
Atom   8C    basis set group =>   1
Atom   9C    basis set group =>   1
Atom  10C    basis set group =>   1
Atom  11C    basis set group =>   1
Atom  12C    basis set group =>   1
Atom  13C    basis set group =>   1
Atom  14C    basis set group =>   1
Atom  15C    basis set group =>   1
Atom  16H    basis set group =>   2
Atom  17H    basis set group =>   2
Atom  18H    basis set group =>   2
Atom  19H    basis set group =>   2
Atom  20H    basis set group =>   2
Atom  21H    basis set group =>   2
Atom  22H    basis set group =>   2
Atom  23H    basis set group =>   2
Atom  24H    basis set group =>   2
Atom  25O    basis set group =>   3
Atom  26O    basis set group =>   3
Atom  27H    basis set group =>   2
Atom  28C    basis set group =>   1
Atom  29C    basis set group =>   1
Atom  30C    basis set group =>   1
Atom  31C    basis set group =>   1
Atom  32C    basis set group =>   1
Atom  33C    basis set group =>   1
Atom  34O    basis set group =>   3
Atom  35O    basis set group =>   3
Atom  36C    basis set group =>   1
Atom  37C    basis set group =>   1
Atom  38C    basis set group =>   1
Atom  39C    basis set group =>   1
Atom  40C    basis set group =>   1
Atom  41C    basis set group =>   1
Atom  42C    basis set group =>   1
Atom  43C    basis set group =>   1
Atom  44C    basis set group =>   1
Atom  45C    basis set group =>   1
Atom  46O    basis set group =>   3
Atom  47C    basis set group =>   1
Atom  48O    basis set group =>   3
Atom  49C    basis set group =>   1
Atom  50C    basis set group =>   1
Atom  51C    basis set group =>   1
Atom  52O    basis set group =>   3
Atom  53C    basis set group =>   1
Atom  54C    basis set group =>   1
Atom  55C    basis set group =>   1
Atom  56C    basis set group =>   1
Atom  57O    basis set group =>   3
Atom  58C    basis set group =>   1
Atom  59O    basis set group =>   3
Atom  60C    basis set group =>   1
Atom  61O    basis set group =>   3
Atom  62C    basis set group =>   1
Atom  63O    basis set group =>   3
Atom  64O    basis set group =>   3
Atom  65N    basis set group =>   4
Atom  66O    basis set group =>   3
Atom  67H    basis set group =>   2
Atom  68H    basis set group =>   2
Atom  69H    basis set group =>   2
Atom  70H    basis set group =>   2
Atom  71H    basis set group =>   2
Atom  72H    basis set group =>   2
Atom  73H    basis set group =>   2
Atom  74H    basis set group =>   2
Atom  75H    basis set group =>   2
Atom  76H    basis set group =>   2
Atom  77H    basis set group =>   2
Atom  78H    basis set group =>   2
Atom  79H    basis set group =>   2
Atom  80H    basis set group =>   2
Atom  81H    basis set group =>   2
Atom  82H    basis set group =>   2
Atom  83H    basis set group =>   2
Atom  84H    basis set group =>   2
Atom  85H    basis set group =>   2
Atom  86H    basis set group =>   2
Atom  87H    basis set group =>   2
Atom  88H    basis set group =>   2
Atom  89H    basis set group =>   2
Atom  90H    basis set group =>   2
Atom  91H    basis set group =>   2
Atom  92H    basis set group =>   2
Atom  93H    basis set group =>   2
Atom  94H    basis set group =>   2
Atom  95H    basis set group =>   2
---------------------------------
AUXILIARY/J BASIS SET INFORMATION
---------------------------------
There are 4 groups of distinct atoms

 Group   1 Type C   : 12s5p4d2f1g contracted to 6s4p3d1f1g pattern {711111/2111/211/2/1}
 Group   2 Type H   : 5s2p1d contracted to 3s1p1d pattern {311/2/1}
 Group   3 Type O   : 12s5p4d2f1g contracted to 6s4p3d1f1g pattern {711111/2111/211/2/1}
 Group   4 Type N   : 12s5p4d2f1g contracted to 6s4p3d1f1g pattern {711111/2111/211/2/1}

Atom   0C    basis set group =>   1
Atom   1C    basis set group =>   1
Atom   2C    basis set group =>   1
Atom   3C    basis set group =>   1
Atom   4C    basis set group =>   1
Atom   5C    basis set group =>   1
Atom   6C    basis set group =>   1
Atom   7C    basis set group =>   1
Atom   8C    basis set group =>   1
Atom   9C    basis set group =>   1
Atom  10C    basis set group =>   1
Atom  11C    basis set group =>   1
Atom  12C    basis set group =>   1
Atom  13C    basis set group =>   1
Atom  14C    basis set group =>   1
Atom  15C    basis set group =>   1
Atom  16H    basis set group =>   2
Atom  17H    basis set group =>   2
Atom  18H    basis set group =>   2
Atom  19H    basis set group =>   2
Atom  20H    basis set group =>   2
Atom  21H    basis set group =>   2
Atom  22H    basis set group =>   2
Atom  23H    basis set group =>   2
Atom  24H    basis set group =>   2
Atom  25O    basis set group =>   3
Atom  26O    basis set group =>   3
Atom  27H    basis set group =>   2
Atom  28C    basis set group =>   1
Atom  29C    basis set group =>   1
Atom  30C    basis set group =>   1
Atom  31C    basis set group =>   1
Atom  32C    basis set group =>   1
Atom  33C    basis set group =>   1
Atom  34O    basis set group =>   3
Atom  35O    basis set group =>   3
Atom  36C    basis set group =>   1
Atom  37C    basis set group =>   1
Atom  38C    basis set group =>   1
Atom  39C    basis set group =>   1
Atom  40C    basis set group =>   1
Atom  41C    basis set group =>   1
Atom  42C    basis set group =>   1
Atom  43C    basis set group =>   1
Atom  44C    basis set group =>   1
Atom  45C    basis set group =>   1
Atom  46O    basis set group =>   3
Atom  47C    basis set group =>   1
Atom  48O    basis set group =>   3
Atom  49C    basis set group =>   1
Atom  50C    basis set group =>   1
Atom  51C    basis set group =>   1
Atom  52O    basis set group =>   3
Atom  53C    basis set group =>   1
Atom  54C    basis set group =>   1
Atom  55C    basis set group =>   1
Atom  56C    basis set group =>   1
Atom  57O    basis set group =>   3
Atom  58C    basis set group =>   1
Atom  59O    basis set group =>   3
Atom  60C    basis set group =>   1
Atom  61O    basis set group =>   3
Atom  62C    basis set group =>   1
Atom  63O    basis set group =>   3
Atom  64O    basis set group =>   3
Atom  65N    basis set group =>   4
Atom  66O    basis set group =>   3
Atom  67H    basis set group =>   2
Atom  68H    basis set group =>   2
Atom  69H    basis set group =>   2
Atom  70H    basis set group =>   2
Atom  71H    basis set group =>   2
Atom  72H    basis set group =>   2
Atom  73H    basis set group =>   2
Atom  74H    basis set group =>   2
Atom  75H    basis set group =>   2
Atom  76H    basis set group =>   2
Atom  77H    basis set group =>   2
Atom  78H    basis set group =>   2
Atom  79H    basis set group =>   2
Atom  80H    basis set group =>   2
Atom  81H    basis set group =>   2
Atom  82H    basis set group =>   2
Atom  83H    basis set group =>   2
Atom  84H    basis set group =>   2
Atom  85H    basis set group =>   2
Atom  86H    basis set group =>   2
Atom  87H    basis set group =>   2
Atom  88H    basis set group =>   2
Atom  89H    basis set group =>   2
Atom  90H    basis set group =>   2
Atom  91H    basis set group =>   2
Atom  92H    basis set group =>   2
Atom  93H    basis set group =>   2
Atom  94H    basis set group =>   2
Atom  95H    basis set group =>   2
------------------------------------------------------------------------------
                             ORCA STARTUP CALCULATIONS
                           -- RI-GTO INTEGRALS CHOSEN --
------------------------------------------------------------------------------
------------------------------------------------------------------------------
                   ___                                                        
                  /   \      - P O W E R E D   B Y -                         
                 /     \                                                     
                 |  |  |   _    _      __       _____    __    __             
                 |  |  |  | |  | |    /  \     |  _  \  |  |  /  |          
                  \  \/   | |  | |   /    \    | | | |  |  | /  /          
                 / \  \   | |__| |  /  /\  \   | |_| |  |  |/  /          
                |  |  |   |  __  | /  /__\  \  |    /   |      \           
                |  |  |   | |  | | |   __   |  |    \   |  |\   \          
                \     /   | |  | | |  |  |  |  | |\  \  |  | \   \       
                 \___/    |_|  |_| |__|  |__|  |_| \__\ |__|  \__/        
                                                                              
                      - O R C A' S   B I G   F R I E N D -                    
                                      &                                       
                       - I N T E G R A L  F E E D E R -                       
                                                                              
 v1 FN, 2020, v2 2021, v3 2022-2024                                           
------------------------------------------------------------------------------


----------------------
SHARK INTEGRAL PACKAGE
----------------------

Number of atoms                             ...     96
Number of basis functions                   ...    876
Number of shells                            ...    420
Maximum angular momentum                    ...      2
Integral batch strategy                     ... SHARK/LIBINT Hybrid
RI-J (if used) integral strategy            ... SPLIT-RIJ (Revised 2003 algorithm where possible)
Printlevel                                  ...      1
Contraction scheme used                     ... SEGMENTED contraction
Prescreening option                         ... SCHWARTZ
   Thresh                                   ... 1.000e-10
   Tcut                                     ... 1.000e-11
   Tpresel                                  ... 1.000e-11 
Coulomb Range Separation                    ... NOT USED
Exchange Range Separation                   ... NOT USED
Multipole approximations                    ... NOT USED
Finite Nucleus Model                        ... NOT USED
CABS basis                                  ... NOT available
Auxiliary Coulomb fitting basis             ... AVAILABLE
   # of basis functions in Aux-J            ...   3222
   # of shells in Aux-J                     ...   1050
   Maximum angular momentum in Aux-J        ...      4
Auxiliary J/K fitting basis                 ... NOT available
Auxiliary Correlation fitting basis         ... NOT available
Auxiliary 'external' fitting basis          ... NOT available

Checking pre-screening integrals            ... done (  0.0 sec) Dimension = 420
   => SHARK Basis and OBASIS are compatible. Storing Pre-screening
Shell pair information
Shell pair cut-off parameter TPreSel        ...   1.0e-11
Total number of shell pairs                 ...     88410
Shell pairs after pre-screening             ...     38134
Total number of primitive shell pairs       ...    512880
Primitive shell pairs kept                  ...    105885
          la=0 lb=0:  12245 shell pairs
          la=1 lb=0:  13737 shell pairs
          la=1 lb=1:   3883 shell pairs
          la=2 lb=0:   4877 shell pairs
          la=2 lb=1:   2920 shell pairs
          la=2 lb=2:    472 shell pairs

Checking whether 4 symmetric matrices of dimension 876 fit in memory
:Max Core in MB      =    800.00
 MB in use           =     43.04
 MB left             =    756.96
 MB needed           =     11.72
 Data fit in memory  = YES
Calculating RI/J V-Matrix + Cholesky decomp.... done (  1.3 sec)
Calculating Nuclear repulsion               ... done (  0.0 sec) ENN=   1205.113205638255 Eh

Diagonalization of the overlap matrix:
Smallest eigenvalue                        ... 1.808e-04
Time for diagonalization                   ...    0.149 sec
Threshold for overlap eigenvalues          ... 1.000e-07
Number of eigenvalues below threshold      ... 0
Time for construction of square roots      ...    0.090 sec
Total time needed                          ...    0.244 sec

-------------------
DFT GRID GENERATION
-------------------

General Integration Accuracy     IntAcc      ... 4.388
Radial Grid Type                 RadialGrid  ... OptM3 with GC (2021)
Angular Grid (max. ang.)         AngularGrid ... 4 (Lebedev-302)
Angular grid pruning method      GridPruning ... 4 (adaptive)
Weight generation scheme         WeightScheme... mBecke (2022)
Basis function cutoff            BFCut       ... 1.0000e-10
Integration weight cutoff        WCut        ... 1.0000e-14
Partially contracted basis set               ... off
Rotationally invariant grid construction     ... off
Angular grids for H and He will be reduced by one unit

Total number of grid points                  ...   461288
Total number of batches                      ...     7259
Average number of points per batch           ...       63
Average number of grid points per atom       ...     4805

--------------------
COSX GRID GENERATION
--------------------

GRIDX 1
-------
General Integration Accuracy     IntAcc      ... 3.816
Radial Grid Type                 RadialGrid  ... OptM3 with GC (2021)
Angular Grid (max. ang.)         AngularGrid ... 1 (Lebedev-50)
Angular grid pruning method      GridPruning ... 4 (adaptive)
Weight generation scheme         WeightScheme... mBecke (2022)
Basis function cutoff            BFCut       ... 1.0000e-10
Integration weight cutoff        WCut        ... 1.0000e-14
Partially contracted basis set               ... on
Rotationally invariant grid construction     ... off
Angular grids for H and He will be reduced by one unit

Total number of grid points                  ...    58391
Total number of batches                      ...      508
Average number of points per batch           ...      114
Average number of grid points per atom       ...      608
UseSFitting                                  ... on

GRIDX 2
-------
General Integration Accuracy     IntAcc      ... 4.020
Radial Grid Type                 RadialGrid  ... OptM3 with GC (2021)
Angular Grid (max. ang.)         AngularGrid ... 2 (Lebedev-110)
Angular grid pruning method      GridPruning ... 4 (adaptive)
Weight generation scheme         WeightScheme... mBecke (2022)
Basis function cutoff            BFCut       ... 1.0000e-10
Integration weight cutoff        WCut        ... 1.0000e-14
Partially contracted basis set               ... on
Rotationally invariant grid construction     ... off
Angular grids for H and He will be reduced by one unit

Total number of grid points                  ...   125981
Total number of batches                      ...     1033
Average number of points per batch           ...      121
Average number of grid points per atom       ...     1312
UseSFitting                                  ... on

GRIDX 3
-------
General Integration Accuracy     IntAcc      ... 4.338
Radial Grid Type                 RadialGrid  ... OptM3 with GC (2021)
Angular Grid (max. ang.)         AngularGrid ... 3 (Lebedev-194)
Angular grid pruning method      GridPruning ... 4 (adaptive)
Weight generation scheme         WeightScheme... mBecke (2022)
Basis function cutoff            BFCut       ... 1.0000e-10
Integration weight cutoff        WCut        ... 1.0000e-14
Partially contracted basis set               ... on
Rotationally invariant grid construction     ... off
Angular grids for H and He will be reduced by one unit

Total number of grid points                  ...   274228
Total number of batches                      ...     2192
Average number of points per batch           ...      125
Average number of grid points per atom       ...     2857
UseSFitting                                  ... on
Grids setup in  27.7 sec
Initializing property integral containers    ... done (  0.0 sec)

SHARK setup successfully completed in  31.4 seconds

Maximum memory used throughout the entire STARTUP-calculation: 206.9 MB
-------------------------------------------------------------------------------
                                 ORCA GUESS
                   Start orbitals & Density for SCF / CASSCF
-------------------------------------------------------------------------------

------------
SCF SETTINGS
------------
Hamiltonian:
 Density Functional     Method          .... DFT(GTOs)
 Exchange Functional    Exchange        .... B88
   X-Alpha parameter    XAlpha          ....  0.666667
   Becke's b parameter  XBeta           ....  0.004200
 Correlation Functional Correlation     .... LYP
 LDA part of GGA corr.  LDAOpt          .... VWN-5
 Gradients option       PostSCFGGA      .... off
 Hybrid DFT is turned on
   Fraction HF Exchange ScalHFX         ....  0.200000
   Scaling of DF-GGA-X  ScalDFX         ....  0.720000
   Scaling of DF-GGA-C  ScalDFC         ....  0.810000
   Scaling of DF-LDA-C  ScalLDAC        ....  1.000000
   Perturbative correction              ....  0.000000
   NL short-range parameter             ....  4.800000
 RI-approximation to the Coulomb term is turned on
   Number of AuxJ basis functions       .... 3222
   RIJ-COSX (HFX calculated with COS-X)).... on


General Settings:
 Integral files         IntName         .... doxorubicin_dimerbasis_GO
 Hartree-Fock type      HFTyp           .... RHF
 Total Charge           Charge          ....    0
 Multiplicity           Mult            ....    1
 Number of Electrons    NEL             ....  122
 Basis Dimension        Dim             ....  876
 Nuclear Repulsion      ENuc            ....   1205.1132056383 Eh

Convergence Acceleration:
 AO-DIIS                CNVDIIS         .... on
   Start iteration      DIISMaxIt       ....    12
   Startup error        DIISStart       ....  0.200000
   # of expansion vecs  DIISMaxEq       ....     5
   Bias factor          DIISBfac        ....   1.050
   Max. coefficient     DIISMaxC        ....  10.000
 MO-DIIS                CNVKDIIS        .... off
 Trust-Rad. Augm. Hess. CNVTRAH         .... auto
   Auto Start mean grad. ratio tolernc. ....  1.125000
   Auto Start start iteration           ....    50
   Auto Start num. interpolation iter.  ....    10
   Max. Number of Micro iterations      ....    24
   Max. Number of Macro iterations      .... Maxiter - #DIIS iter
   Number of Davidson start vectors     ....     2
   Converg. threshold    (grad. norm)   ....   5.000e-05
   Grad. Scal. Fac. for Micro threshold ....   0.100
   Minimum threshold for Micro iter.    ....   1.000e-02
   NR start threshold (gradient norm)   ....   1.000e-04
   Initial trust radius                 ....   0.400
   Minimum AH scaling param. (alpha)    ....   1.000
   Maximum AH scaling param. (alpha)    .... 1000.000
   Quad. conv. algorithm                .... NR
   White noise on init. David. guess    .... on
   Maximum white noise                  ....   0.010
   Pseudo random numbers                .... off
   Inactive MOs                         .... canonical
   Orbital update algorithm             .... Taylor
   Preconditioner                       .... Diag
   Full preconditioner red. dimension   ....   250
 SOSCF                 CNVSOSCF           .... on
   Start iteration     SOSCFMaxIt         ....   150
   Startup grad/error  SOSCFStart         ....  0.003300
   Hessian update      SOSCFHessUp        .... L-BFGS
   Autom. constraints  SOSCFAutoConstrain .... off
 Level Shifting         CNVShift        .... on
   Level shift para.    LevelShift      ....    0.2500
   Turn off err/grad.   ShiftErr        ....    0.0010
 Zerner damping         CNVZerner       .... off
 Static damping         CNVDamp         .... on
   Fraction old density DampFac         ....    0.7000
   Max. Damping (<1)    DampMax         ....    0.9800
   Min. Damping (>=0)   DampMin         ....    0.0000
   Turn off err/grad.   DampErr         ....    0.1000

SCF Procedure:
 Maximum # iterations   MaxIter         ....   125
 SCF integral mode      SCFMode         .... Direct
   Integral package                     .... SHARK and LIBINT hybrid scheme
 Reset frequency        DirectResetFreq ....    20
 Integral Threshold     Thresh          ....  1.000e-10 Eh
 Primitive CutOff       TCut            ....  1.000e-11 Eh

Convergence Tolerance:
 Convergence Check Mode ConvCheckMode   .... Total+1el-Energy
 Convergence forced     ConvForced      .... 0
 Energy Change          TolE            ....  1.000e-06 Eh
 1-El. energy change                    ....  1.000e-03 Eh
 Orbital Gradient       TolG            ....  5.000e-05
 Orbital Rotation angle TolX            ....  5.000e-05
 DIIS Error             TolErr          ....  1.000e-06

------------------------------
INITIAL GUESS: MODEL POTENTIAL
------------------------------
Loading Hartree-Fock densities                     ... done
Calculating cut-offs                               ... done
Initializing the effective Hamiltonian             ... done
Setting up the integral package (SHARK)            ... done
Starting the Coulomb interaction                   ... done (   2.9 sec)
Making the grid                                    ... done (   4.3 sec)
Mapping shells                                     ... done
Starting the XC term evaluation                    ... done (   2.7 sec)
  promolecular density results
     # of electrons  =    121.993651528
     EX              =   -101.690395854
     EC              =     -4.185053275
     EX+EC           =   -105.875449129
Transforming the Hamiltonian                       ... done (   0.1 sec)
Diagonalizing the Hamiltonian                      ... done (   0.1 sec)
Back transforming the eigenvectors                 ... done (   0.0 sec)
Now organizing SCF variables                       ... done
                      ------------------
                      INITIAL GUESS DONE (  10.2 sec)
                      ------------------
             **** ENERGY FILE WAS UPDATED (doxorubicin_dimerbasis_GO.en.tmp) ****
Finished Guess after  10.6 sec
Maximum memory used throughout the entire GUESS-calculation: 84.8 MB

-------------------------------------------------------------------------------------------
                                      ORCA LEAN-SCF
                              memory conserving SCF solver
-------------------------------------------------------------------------------------------

----------------------------------------D-I-I-S--------------------------------------------
Iteration    Energy (Eh)           Delta-E    RMSDP     MaxDP     DIISErr   Damp  Time(sec)
-------------------------------------------------------------------------------------------
               ***  Starting incremental Fock matrix formation  ***
    1    -765.3650947540713787     0.00e+00  8.63e-04  6.21e-02  2.05e-01  0.700  76.8
    2    -765.4995230551228360    -1.34e-01  6.19e-04  3.59e-02  9.27e-02  0.700  38.4
                               ***Turning on AO-DIIS***
    3    -765.5609403452219794    -6.14e-02  3.23e-04  1.58e-02  3.19e-02  0.700  37.6
    4    -765.5969968410777255    -3.61e-02  6.65e-04  3.61e-02  1.94e-02  0.000  34.5
    5    -765.6736530775012852    -7.67e-02  7.21e-05  6.24e-03  3.67e-03  0.000  37.0
                              *** Initializing SOSCF ***
---------------------------------------S-O-S-C-F--------------------------------------
Iteration    Energy (Eh)           Delta-E    RMSDP     MaxDP     MaxGrad    Time(sec)
--------------------------------------------------------------------------------------
    6    -765.6739673611018588    -3.14e-04  2.13e-05  1.79e-03  9.27e-04    30.1
               *** Restarting incremental Fock matrix formation ***
    7    -765.6738714429566244     9.59e-05  1.42e-05  9.39e-04  2.39e-04    82.9
    8    -765.6738691248724535     2.32e-06  6.99e-06  5.43e-04  3.99e-04    36.9
    9    -765.6738749779221962    -5.85e-06  2.91e-06  2.40e-04  4.05e-05    31.5
   10    -765.6738749108831144     6.70e-08  1.15e-06  8.39e-05  4.58e-05    29.9
                 **** Energy Check signals convergence ****

               *****************************************************
               *                     SUCCESS                       *
               *           SCF CONVERGED AFTER  10 CYCLES          *
               *****************************************************

Recomputing exchange energy using gridx3       ... done (  122.231 sec)
Old exchange energy                            :    -20.617152464 Eh
New exchange energy                            :    -20.617128389 Eh
Exchange energy change after final integration :      0.000024075 Eh
Total energy after final integration           :   -765.673850970 Eh
             **** ENERGY FILE WAS UPDATED (doxorubicin_dimerbasis_GO.en.tmp) ****

----------------
TOTAL SCF ENERGY
----------------

Total Energy       :       -765.67385096969576 Eh          -20835.04472 eV

Components:
Nuclear Repulsion  :       1205.11320563825507 Eh           32792.79748 eV
Electronic Energy  :      -1970.78708068248716 Eh          -53627.84285 eV
One Electron Energy:      -3431.92983371492483 Eh          -93387.55851 eV
Two Electron Energy:       1461.14275303243767 Eh           39759.71565 eV

Virial components:
Potential Energy   :      -1526.97456360663909 Eh          -41551.09029 eV
Kinetic Energy     :        761.30071263694333 Eh           20716.04557 eV
Virial Ratio       :          2.00574429822561

DFT components:
N(Alpha)           :       61.000083540407 electrons
N(Beta)            :       61.000083540407 electrons
N(Total)           :      122.000167080813 electrons
E(X)               :      -81.911056706525 Eh       
E(C)               :       -4.924219882661 Eh       
E(XC)              :      -86.835276589186 Eh       

---------------
SCF CONVERGENCE
---------------

  Last Energy change         ...   -6.7039e-08  Tolerance :   1.0000e-06
  Last MAX-Density change    ...    8.3857e-05  Tolerance :   1.0000e-05
  Last RMS-Density change    ...    1.1478e-06  Tolerance :   1.0000e-06
  Last DIIS Error            ...    9.2675e-04  Tolerance :   1.0000e-06
  Last Orbital Gradient      ...    4.5770e-05  Tolerance :   5.0000e-05
  Last Orbital Rotation      ...    1.0206e-04  Tolerance :   5.0000e-05


----------------
ORBITAL ENERGIES
----------------

  NO   OCC          E(Eh)            E(eV) 
   0   2.0000     -19.174995      -521.7781 
   1   2.0000     -19.147884      -521.0404 
   2   2.0000     -10.249020      -278.8900 
   3   2.0000     -10.235857      -278.5318 
   4   2.0000     -10.235646      -278.5261 
   5   2.0000     -10.197041      -277.4756 
   6   2.0000     -10.196826      -277.4698 
   7   2.0000     -10.196820      -277.4696 
   8   2.0000     -10.194574      -277.4085 
   9   2.0000     -10.190238      -277.2905 
  10   2.0000     -10.189893      -277.2811 
  11   2.0000     -10.187394      -277.2131 
  12   2.0000     -10.186744      -277.1954 
  13   2.0000     -10.186635      -277.1924 
  14   2.0000     -10.184906      -277.1454 
  15   2.0000     -10.184068      -277.1226 
  16   2.0000     -10.183567      -277.1089 
  17   2.0000     -10.182563      -277.0816 
  18   2.0000      -1.063672       -28.9440 
  19   2.0000      -1.061160       -28.8756 
  20   2.0000      -0.884538       -24.0695 
  21   2.0000      -0.832818       -22.6621 
  22   2.0000      -0.827937       -22.5293 
  23   2.0000      -0.774857       -21.0849 
  24   2.0000      -0.759280       -20.6611 
  25   2.0000      -0.743128       -20.2216 
  26   2.0000      -0.717758       -19.5312 
  27   2.0000      -0.687595       -18.7104 
  28   2.0000      -0.636648       -17.3241 
  29   2.0000      -0.631012       -17.1707 
  30   2.0000      -0.622328       -16.9344 
  31   2.0000      -0.603966       -16.4347 
  32   2.0000      -0.573033       -15.5930 
  33   2.0000      -0.531496       -14.4628 
  34   2.0000      -0.526627       -14.3302 
  35   2.0000      -0.516932       -14.0664 
  36   2.0000      -0.504345       -13.7239 
  37   2.0000      -0.489413       -13.3176 
  38   2.0000      -0.473814       -12.8931 
  39   2.0000      -0.456845       -12.4314 
  40   2.0000      -0.438045       -11.9198 
  41   2.0000      -0.433316       -11.7911 
  42   2.0000      -0.419545       -11.4164 
  43   2.0000      -0.414805       -11.2874 
  44   2.0000      -0.406026       -11.0485 
  45   2.0000      -0.402039       -10.9400 
  46   2.0000      -0.394248       -10.7280 
  47   2.0000      -0.388546       -10.5729 
  48   2.0000      -0.387094       -10.5334 
  49   2.0000      -0.383376       -10.4322 
  50   2.0000      -0.361343        -9.8326 
  51   2.0000      -0.343058        -9.3351 
  52   2.0000      -0.335716        -9.1353 
  53   2.0000      -0.335599        -9.1321 
  54   2.0000      -0.321481        -8.7479 
  55   2.0000      -0.289601        -7.8805 
  56   2.0000      -0.265569        -7.2265 
  57   2.0000      -0.263393        -7.1673 
  58   2.0000      -0.252731        -6.8772 
  59   2.0000      -0.222920        -6.0660 
  60   2.0000      -0.188018        -5.1162 
  61   0.0000      -0.069800        -1.8994 
  62   0.0000      -0.007831        -0.2131 
  63   0.0000      -0.001014        -0.0276 
  64   0.0000       0.018421         0.5012 
  65   0.0000       0.043123         1.1734 
  66   0.0000       0.061643         1.6774 
  67   0.0000       0.065023         1.7694 
  68   0.0000       0.068140         1.8542 
  69   0.0000       0.082347         2.2408 
  70   0.0000       0.086992         2.3672 
  71   0.0000       0.092908         2.5282 
*Only the first 10 virtual orbitals were printed.

                    ********************************
                    * MULLIKEN POPULATION ANALYSIS *
                    ********************************

-----------------------
MULLIKEN ATOMIC CHARGES
-----------------------
   0 C :    0.048245
   1 C :   -0.034215
   2 C :    0.157376
   3 C :   -0.193378
   4 C :   -0.207891
   5 C :    0.166969
   6 C :   -0.305801
   7 C :    0.377712
   8 C :   -0.278283
   9 C :    0.160195
  10 C :   -0.195976
  11 C :   -0.191229
  12 C :    0.179083
  13 C :   -0.222296
  14 C :   -0.000337
  15 C :   -0.003573
  16 H :    0.142877
  17 H :    0.135775
  18 H :    0.129313
  19 H :    0.126737
  20 H :    0.117253
  21 H :    0.149173
  22 H :    0.147045
  23 H :    0.137063
  24 H :    0.140487
  25 O :   -0.444860
  26 O :   -0.639808
  27 H :    0.412687
  28 C :    0.000000
  29 C :   -0.000000
  30 C :    0.000000
  31 C :   -0.000000
  32 C :    0.000000
  33 C :    0.000004
  34 O :   -0.000000
  35 O :   -0.000002
  36 C :    0.000071
  37 C :   -0.000009
  38 C :    0.000034
  39 C :    0.000012
  40 C :    0.000065
  41 C :   -0.000426
  42 C :   -0.000857
  43 C :   -0.000940
  44 C :    0.000566
  45 C :   -0.000092
  46 O :    0.000002
  47 C :   -0.000052
  48 O :    0.000001
  49 C :    0.000556
  50 C :   -0.000086
  51 C :   -0.004319
  52 O :    0.001066
  53 C :   -0.001194
  54 C :   -0.000071
  55 C :    0.000021
  56 C :   -0.000004
  57 O :    0.000179
  58 C :   -0.000125
  59 O :    0.000155
  60 C :   -0.000391
  61 O :   -0.000004
  62 C :   -0.000331
  63 O :   -0.000004
  64 O :    0.000002
  65 N :    0.000000
  66 O :    0.000000
  67 H :   -0.000000
  68 H :   -0.000000
  69 H :   -0.000000
  70 H :    0.000000
  71 H :    0.000000
  72 H :    0.000000
  73 H :    0.000000
  74 H :    0.000000
  75 H :   -0.000006
  76 H :   -0.000220
  77 H :    0.000000
  78 H :    0.000000
  79 H :    0.000000
  80 H :    0.000003
  81 H :    0.000000
  82 H :   -0.000003
  83 H :    0.000000
  84 H :   -0.000001
  85 H :   -0.000023
  86 H :   -0.000126
  87 H :   -0.000360
  88 H :   -0.000674
  89 H :   -0.001441
  90 H :   -0.000040
  91 H :   -0.001273
  92 H :    0.000000
  93 H :    0.000000
  94 H :    0.000000
  95 H :    0.000000
Sum of atomic charges:   -0.0000000

--------------------------------
MULLIKEN REDUCED ORBITAL CHARGES
--------------------------------
  0 C s       :     3.178550  s :     3.178550
      pz      :     0.985629  p :     2.704593
      px      :     0.791116
      py      :     0.927848
      dz2     :     0.014633  d :     0.068613
      dxz     :     0.013398
      dyz     :     0.010113
      dx2y2   :     0.013878
      dxy     :     0.016590

  1 C s       :     3.212270  s :     3.212270
      pz      :     0.940545  p :     2.752220
      px      :     0.994129
      py      :     0.817546
      dz2     :     0.015446  d :     0.069725
      dxz     :     0.011834
      dyz     :     0.015444
      dx2y2   :     0.011080
      dxy     :     0.015921

  2 C s       :     3.136963  s :     3.136963
      pz      :     0.785822  p :     2.665698
      px      :     0.935514
      py      :     0.944362
      dz2     :     0.010786  d :     0.039963
      dxz     :     0.010928
      dyz     :     0.006277
      dx2y2   :     0.006088
      dxy     :     0.005884

  3 C s       :     3.214352  s :     3.214352
      pz      :     0.965064  p :     2.942115
      px      :     0.974415
      py      :     1.002636
      dz2     :     0.009889  d :     0.036911
      dxz     :     0.009899
      dyz     :     0.008139
      dx2y2   :     0.003348
      dxy     :     0.005637

  4 C s       :     3.213972  s :     3.213972
      pz      :     0.970876  p :     2.957783
      px      :     0.990199
      py      :     0.996707
      dz2     :     0.008237  d :     0.036135
      dxz     :     0.010876
      dyz     :     0.007830
      dx2y2   :     0.003887
      dxy     :     0.005306

  5 C s       :     3.146721  s :     3.146721
      pz      :     0.845700  p :     2.644058
      px      :     0.878588
      py      :     0.919770
      dz2     :     0.010173  d :     0.042253
      dxz     :     0.011389
      dyz     :     0.008941
      dx2y2   :     0.005967
      dxy     :     0.005782

  6 C s       :     3.183698  s :     3.183698
      pz      :     1.048195  p :     3.088067
      px      :     0.982593
      py      :     1.057279
      dz2     :     0.007980  d :     0.034036
      dxz     :     0.009825
      dyz     :     0.006513
      dx2y2   :     0.004528
      dxy     :     0.005189

  7 C s       :     3.071980  s :     3.071980
      pz      :     0.679797  p :     2.479140
      px      :     0.870234
      py      :     0.929110
      dz2     :     0.019171  d :     0.071169
      dxz     :     0.020679
      dyz     :     0.015813
      dx2y2   :     0.008298
      dxy     :     0.007209

  8 C s       :     3.230300  s :     3.230300
      pz      :     1.008474  p :     3.013978
      px      :     0.983754
      py      :     1.021750
      dz2     :     0.008687  d :     0.034005
      dxz     :     0.009879
      dyz     :     0.007012
      dx2y2   :     0.003715
      dxy     :     0.004711

  9 C s       :     3.152352  s :     3.152352
      pz      :     0.825273  p :     2.645071
      px      :     0.887747
      py      :     0.932051
      dz2     :     0.010536  d :     0.042382
      dxz     :     0.011555
      dyz     :     0.008917
      dx2y2   :     0.005637
      dxy     :     0.005736

 10 C s       :     3.205203  s :     3.205203
      pz      :     0.972091  p :     2.954351
      px      :     0.985455
      py      :     0.996805
      dz2     :     0.009605  d :     0.036423
      dxz     :     0.010428
      dyz     :     0.008182
      dx2y2   :     0.003206
      dxy     :     0.005001

 11 C s       :     3.211231  s :     3.211231
      pz      :     0.985458  p :     2.943479
      px      :     0.974960
      py      :     0.983061
      dz2     :     0.008290  d :     0.036519
      dxz     :     0.011788
      dyz     :     0.007755
      dx2y2   :     0.003805
      dxy     :     0.004881

 12 C s       :     3.139879  s :     3.139879
      pz      :     0.840188  p :     2.639016
      px      :     0.867736
      py      :     0.931091
      dz2     :     0.009875  d :     0.042022
      dxz     :     0.012091
      dyz     :     0.009285
      dx2y2   :     0.005396
      dxy     :     0.005374

 13 C s       :     3.213684  s :     3.213684
      pz      :     1.022048  p :     2.974196
      px      :     0.956057
      py      :     0.996090
      dz2     :     0.008420  d :     0.034417
      dxz     :     0.012837
      dyz     :     0.005323
      dx2y2   :     0.003574
      dxy     :     0.004263

 14 C s       :     3.168055  s :     3.168055
      pz      :     0.946592  p :     2.791968
      px      :     0.897487
      py      :     0.947890
      dz2     :     0.009885  d :     0.040314
      dxz     :     0.011211
      dyz     :     0.007522
      dx2y2   :     0.005902
      dxy     :     0.005794

 15 C s       :     3.162316  s :     3.162316
      pz      :     0.915518  p :     2.801692
      px      :     0.916763
      py      :     0.969411
      dz2     :     0.010123  d :     0.039565
      dxz     :     0.010730
      dyz     :     0.007528
      dx2y2   :     0.005516
      dxy     :     0.005668

 16 H s       :     0.857123  s :     0.857123

 17 H s       :     0.864225  s :     0.864225

 18 H s       :     0.870687  s :     0.870687

 19 H s       :     0.873263  s :     0.873263

 20 H s       :     0.882747  s :     0.882747

 21 H s       :     0.850827  s :     0.850827

 22 H s       :     0.852955  s :     0.852955

 23 H s       :     0.862937  s :     0.862937

 24 H s       :     0.859513  s :     0.859513

 25 O s       :     3.938108  s :     3.938108
      pz      :     1.597569  p :     4.472593
      px      :     1.461789
      py      :     1.413235
      dz2     :     0.004278  d :     0.034158
      dxz     :     0.004258
      dyz     :     0.006964
      dx2y2   :     0.009232
      dxy     :     0.009426

 26 O s       :     3.891847  s :     3.891847
      pz      :     1.283094  p :     4.719130
      px      :     1.664749
      py      :     1.771286
      dz2     :     0.003443  d :     0.028831
      dxz     :     0.010861
      dyz     :     0.005710
      dx2y2   :     0.003099
      dxy     :     0.005718

 27 H s       :     0.587313  s :     0.587313

 28 C s       :    -0.000000  s :    -0.000000
      pz      :     0.000000  p :     0.000000
      px      :     0.000000
      py      :    -0.000000
      dz2     :    -0.000000  d :    -0.000000
      dxz     :    -0.000000
      dyz     :    -0.000000
      dx2y2   :    -0.000000
      dxy     :     0.000000

 29 C s       :     0.000000  s :     0.000000
      pz      :     0.000000  p :     0.000000
      px      :     0.000000
      py      :    -0.000000
      dz2     :    -0.000000  d :    -0.000000
      dxz     :    -0.000000
      dyz     :    -0.000000
      dx2y2   :    -0.000000
      dxy     :    -0.000000

 30 C s       :     0.000000  s :     0.000000
      pz      :     0.000000  p :    -0.000000
      px      :    -0.000000
      py      :    -0.000000
      dz2     :     0.000000  d :    -0.000000
      dxz     :    -0.000000
      dyz     :    -0.000000
      dx2y2   :     0.000000
      dxy     :    -0.000000

 31 C s       :     0.000000  s :     0.000000
      pz      :    -0.000000  p :     0.000000
      px      :     0.000000
      py      :     0.000000
      dz2     :     0.000000  d :    -0.000000
      dxz     :    -0.000000
      dyz     :    -0.000000
      dx2y2   :    -0.000000
      dxy     :    -0.000000

 32 C s       :    -0.000000  s :    -0.000000
      pz      :    -0.000000  p :     0.000000
      px      :     0.000000
      py      :     0.000000
      dz2     :    -0.000000  d :    -0.000000
      dxz     :    -0.000000
      dyz     :    -0.000000
      dx2y2   :    -0.000000
      dxy     :    -0.000000

 33 C s       :    -0.000001  s :    -0.000001
      pz      :    -0.000001  p :    -0.000003
      px      :    -0.000002
      py      :     0.000000
      dz2     :    -0.000000  d :    -0.000000
      dxz     :     0.000000
      dyz     :    -0.000000
      dx2y2   :     0.000000
      dxy     :    -0.000000

 34 O s       :     0.000000  s :     0.000000
      pz      :     0.000000  p :     0.000000
      px      :     0.000000
      py      :     0.000000
      dz2     :    -0.000000  d :    -0.000000
      dxz     :    -0.000000
      dyz     :    -0.000000
      dx2y2   :    -0.000000
      dxy     :    -0.000000

 35 O s       :     0.000001  s :     0.000001
      pz      :     0.000000  p :     0.000001
      px      :     0.000001
      py      :    -0.000000
      dz2     :    -0.000000  d :    -0.000000
      dxz     :    -0.000000
      dyz     :    -0.000000
      dx2y2   :    -0.000000
      dxy     :    -0.000000

 36 C s       :    -0.000034  s :    -0.000034
      pz      :     0.000002  p :    -0.000037
      px      :    -0.000043
      py      :     0.000005
      dz2     :     0.000000  d :    -0.000000
      dxz     :    -0.000000
      dyz     :    -0.000000
      dx2y2   :    -0.000000
      dxy     :     0.000000

 37 C s       :     0.000005  s :     0.000005
      pz      :     0.000002  p :     0.000004
      px      :     0.000001
      py      :     0.000001
      dz2     :    -0.000000  d :    -0.000000
      dxz     :     0.000000
      dyz     :    -0.000000
      dx2y2   :     0.000000
      dxy     :    -0.000000

 38 C s       :    -0.000004  s :    -0.000004
      pz      :     0.000002  p :    -0.000030
      px      :    -0.000032
      py      :    -0.000000
      dz2     :    -0.000000  d :    -0.000000
      dxz     :    -0.000000
      dyz     :    -0.000000
      dx2y2   :     0.000000
      dxy     :    -0.000000

 39 C s       :    -0.000003  s :    -0.000003
      pz      :    -0.000001  p :    -0.000009
      px      :    -0.000005
      py      :    -0.000003
      dz2     :    -0.000000  d :    -0.000000
      dxz     :     0.000000
      dyz     :    -0.000000
      dx2y2   :    -0.000000
      dxy     :    -0.000000

 40 C s       :    -0.000068  s :    -0.000068
      pz      :     0.000005  p :     0.000002
      px      :    -0.000018
      py      :     0.000016
      dz2     :    -0.000000  d :    -0.000000
      dxz     :    -0.000000
      dyz     :    -0.000000
      dx2y2   :    -0.000000
      dxy     :    -0.000000

 41 C s       :     0.000218  s :     0.000218
      pz      :     0.000055  p :     0.000209
      px      :     0.000194
      py      :    -0.000040
      dz2     :    -0.000000  d :    -0.000000
      dxz     :    -0.000000
      dyz     :    -0.000000
      dx2y2   :    -0.000000
      dxy     :     0.000000

 42 C s       :     0.000128  s :     0.000128
      pz      :    -0.000441  p :     0.000729
      px      :     0.000761
      py      :     0.000409
      dz2     :    -0.000000  d :    -0.000000
      dxz     :    -0.000000
      dyz     :    -0.000000
      dx2y2   :    -0.000000
      dxy     :     0.000001

 43 C s       :     0.000901  s :     0.000901
      pz      :     0.000693  p :     0.000040
      px      :    -0.000351
      py      :    -0.000302
      dz2     :    -0.000000  d :    -0.000001
      dxz     :     0.000000
      dyz     :    -0.000000
      dx2y2   :    -0.000000
      dxy     :     0.000000

 44 C s       :    -0.000171  s :    -0.000171
      pz      :     0.000018  p :    -0.000395
      px      :    -0.000128
      py      :    -0.000285
      dz2     :    -0.000000  d :    -0.000001
      dxz     :    -0.000000
      dyz     :    -0.000000
      dx2y2   :    -0.000000
      dxy     :    -0.000000

 45 C s       :     0.000046  s :     0.000046
      pz      :     0.000002  p :     0.000047
      px      :    -0.000003
      py      :     0.000048
      dz2     :    -0.000000  d :    -0.000000
      dxz     :     0.000000
      dyz     :    -0.000000
      dx2y2   :    -0.000000
      dxy     :    -0.000000

 46 O s       :    -0.000000  s :    -0.000000
      pz      :     0.000000  p :    -0.000001
      px      :    -0.000000
      py      :    -0.000001
      dz2     :    -0.000000  d :    -0.000000
      dxz     :    -0.000000
      dyz     :    -0.000000
      dx2y2   :    -0.000000
      dxy     :    -0.000000

 47 C s       :     0.000001  s :     0.000001
      pz      :     0.000011  p :     0.000051
      px      :     0.000031
      py      :     0.000009
      dz2     :    -0.000000  d :    -0.000000
      dxz     :    -0.000000
      dyz     :    -0.000000
      dx2y2   :    -0.000000
      dxy     :     0.000000

 48 O s       :    -0.000001  s :    -0.000001
      pz      :     0.000000  p :     0.000001
      px      :     0.000000
      py      :     0.000000
      dz2     :    -0.000000  d :    -0.000000
      dxz     :    -0.000000
      dyz     :    -0.000000
      dx2y2   :    -0.000000
      dxy     :    -0.000000

 49 C s       :    -0.000234  s :    -0.000234
      pz      :    -0.000008  p :    -0.000322
      px      :    -0.000043
      py      :    -0.000271
      dz2     :    -0.000000  d :    -0.000001
      dxz     :    -0.000000
      dyz     :    -0.000000
      dx2y2   :    -0.000000
      dxy     :    -0.000000

 50 C s       :     0.000881  s :     0.000881
      pz      :     0.000548  p :    -0.000794
      px      :    -0.000625
      py      :    -0.000717
      dz2     :    -0.000000  d :    -0.000001
      dxz     :    -0.000000
      dyz     :    -0.000000
      dx2y2   :    -0.000000
      dxy     :    -0.000000

 51 C s       :     0.001638  s :     0.001638
      pz      :    -0.000795  p :     0.002684
      px      :     0.001869
      py      :     0.001609
      dz2     :    -0.000000  d :    -0.000002
      dxz     :    -0.000002
      dyz     :    -0.000002
      dx2y2   :    -0.000001
      dxy     :     0.000002

 52 O s       :    -0.001157  s :    -0.001157
      pz      :    -0.000393  p :     0.000090
      px      :     0.000363
      py      :     0.000121
      dz2     :    -0.000001  d :     0.000001
      dxz     :     0.000001
      dyz     :     0.000001
      dx2y2   :     0.000001
      dxy     :    -0.000001

 53 C s       :     0.000372  s :     0.000372
      pz      :    -0.000098  p :     0.000822
      px      :     0.000110
      py      :     0.000810
      dz2     :    -0.000000  d :    -0.000001
      dxz     :    -0.000000
      dyz     :    -0.000001
      dx2y2   :    -0.000000
      dxy     :     0.000000

 54 C s       :     0.000063  s :     0.000063
      pz      :     0.000008  p :     0.000008
      px      :    -0.000012
      py      :     0.000012
      dz2     :    -0.000000  d :    -0.000000
      dxz     :     0.000000
      dyz     :    -0.000000
      dx2y2   :    -0.000000
      dxy     :    -0.000000

 55 C s       :    -0.000012  s :    -0.000012
      pz      :    -0.000000  p :    -0.000009
      px      :     0.000000
      py      :    -0.000009
      dz2     :    -0.000000  d :    -0.000000
      dxz     :    -0.000000
      dyz     :    -0.000000
      dx2y2   :    -0.000000
      dxy     :    -0.000000

 56 C s       :    -0.000002  s :    -0.000002
      pz      :     0.000002  p :     0.000007
      px      :     0.000007
      py      :    -0.000002
      dz2     :    -0.000000  d :    -0.000000
      dxz     :    -0.000000
      dyz     :    -0.000000
      dx2y2   :     0.000000
      dxy     :    -0.000000

 57 O s       :    -0.000227  s :    -0.000227
      pz      :    -0.000061  p :     0.000046
      px      :    -0.000005
      py      :     0.000112
      dz2     :    -0.000000  d :     0.000002
      dxz     :     0.000001
      dyz     :     0.000001
      dx2y2   :     0.000000
      dxy     :     0.000000

 58 C s       :    -0.000158  s :    -0.000158
      pz      :     0.000158  p :     0.000283
      px      :    -0.000023
      py      :     0.000149
      dz2     :     0.000000  d :    -0.000000
      dxz     :    -0.000000
      dyz     :     0.000000
      dx2y2   :    -0.000000
      dxy     :    -0.000000

 59 O s       :    -0.000200  s :    -0.000200
      pz      :    -0.000013  p :     0.000044
      px      :     0.000058
      py      :    -0.000001
      dz2     :    -0.000000  d :     0.000001
      dxz     :     0.000001
      dyz     :    -0.000000
      dx2y2   :     0.000000
      dxy     :     0.000000

 60 C s       :     0.000267  s :     0.000267
      pz      :     0.000003  p :     0.000124
      px      :     0.000138
      py      :    -0.000017
      dz2     :     0.000000  d :    -0.000000
      dxz     :    -0.000000
      dyz     :    -0.000000
      dx2y2   :    -0.000000
      dxy     :    -0.000000

 61 O s       :    -0.000048  s :    -0.000048
      pz      :    -0.000005  p :     0.000051
      px      :     0.000100
      py      :    -0.000044
      dz2     :     0.000000  d :     0.000001
      dxz     :    -0.000000
      dyz     :    -0.000000
      dx2y2   :     0.000001
      dxy     :     0.000001

 62 C s       :    -0.000205  s :    -0.000205
      pz      :     0.000129  p :     0.000536
      px      :     0.000489
      py      :    -0.000083
      dz2     :     0.000000  d :    -0.000000
      dxz     :    -0.000000
      dyz     :    -0.000000
      dx2y2   :     0.000001
      dxy     :    -0.000001

 63 O s       :    -0.000184  s :    -0.000184
      pz      :    -0.000054  p :     0.000196
      px      :     0.000249
      py      :     0.000001
      dz2     :    -0.000002  d :    -0.000008
      dxz     :    -0.000003
      dyz     :    -0.000000
      dx2y2   :    -0.000002
      dxy     :    -0.000001

 64 O s       :    -0.000001  s :    -0.000001
      pz      :    -0.000000  p :    -0.000000
      px      :    -0.000000
      py      :    -0.000000
      dz2     :    -0.000000  d :    -0.000000
      dxz     :    -0.000000
      dyz     :    -0.000000
      dx2y2   :    -0.000000
      dxy     :    -0.000000

 65 N s       :    -0.000000  s :    -0.000000
      pz      :     0.000000  p :    -0.000000
      px      :    -0.000000
      py      :    -0.000000
      dz2     :    -0.000000  d :    -0.000000
      dxz     :    -0.000000
      dyz     :    -0.000000
      dx2y2   :    -0.000000
      dxy     :    -0.000000

 66 O s       :    -0.000000  s :    -0.000000
      pz      :     0.000000  p :    -0.000000
      px      :    -0.000000
      py      :    -0.000000
      dz2     :    -0.000000  d :    -0.000000
      dxz     :    -0.000000
      dyz     :    -0.000000
      dx2y2   :    -0.000000
      dxy     :    -0.000000

 67 H s       :     0.000000  s :     0.000000

 68 H s       :     0.000000  s :     0.000000

 69 H s       :     0.000000  s :     0.000000

 70 H s       :    -0.000000  s :    -0.000000

 71 H s       :    -0.000000  s :    -0.000000

 72 H s       :    -0.000000  s :    -0.000000

 73 H s       :    -0.000000  s :    -0.000000

 74 H s       :    -0.000000  s :    -0.000000

 75 H s       :     0.000006  s :     0.000006

 76 H s       :     0.000220  s :     0.000220

 77 H s       :    -0.000000  s :    -0.000000

 78 H s       :    -0.000000  s :    -0.000000

 79 H s       :    -0.000000  s :    -0.000000

 80 H s       :    -0.000003  s :    -0.000003

 81 H s       :    -0.000000  s :    -0.000000

 82 H s       :     0.000003  s :     0.000003

 83 H s       :    -0.000000  s :    -0.000000

 84 H s       :     0.000001  s :     0.000001

 85 H s       :     0.000023  s :     0.000023

 86 H s       :     0.000126  s :     0.000126

 87 H s       :     0.000360  s :     0.000360

 88 H s       :     0.000674  s :     0.000674

 89 H s       :     0.001441  s :     0.001441

 90 H s       :     0.000040  s :     0.000040

 91 H s       :     0.001273  s :     0.001273

 92 H s       :    -0.000000  s :    -0.000000

 93 H s       :    -0.000000  s :    -0.000000

 94 H s       :    -0.000000  s :    -0.000000

 95 H s       :    -0.000000  s :    -0.000000



                     *******************************
                     * LOEWDIN POPULATION ANALYSIS *
                     *******************************

----------------------
LOEWDIN ATOMIC CHARGES
----------------------
   0 C :   -0.014665
   1 C :   -0.006540
   2 C :   -0.028736
   3 C :   -0.122460
   4 C :   -0.127204
   5 C :    0.000061
   6 C :   -0.189811
   7 C :    0.072347
   8 C :   -0.145890
   9 C :   -0.002534
  10 C :   -0.122872
  11 C :   -0.117657
  12 C :   -0.004862
  13 C :   -0.142737
  14 C :    0.002259
  15 C :   -0.011857
  16 H :    0.128883
  17 H :    0.125949
  18 H :    0.133291
  19 H :    0.131624
  20 H :    0.127997
  21 H :    0.146208
  22 H :    0.140880
  23 H :    0.136461
  24 H :    0.138106
  25 O :   -0.237919
  26 O :   -0.315148
  27 H :    0.326613
  28 C :   -0.000000
  29 C :   -0.000000
  30 C :   -0.000000
  31 C :   -0.000000
  32 C :   -0.000000
  33 C :   -0.000000
  34 O :   -0.000000
  35 O :   -0.000001
  36 C :   -0.000019
  37 C :   -0.000002
  38 C :   -0.000012
  39 C :   -0.000003
  40 C :   -0.000051
  41 C :   -0.000216
  42 C :   -0.001355
  43 C :   -0.000687
  44 C :   -0.000075
  45 C :   -0.000032
  46 O :   -0.000000
  47 C :   -0.000007
  48 O :   -0.000000
  49 C :   -0.000014
  50 C :   -0.000408
  51 C :   -0.002746
  52 O :   -0.001674
  53 C :   -0.000331
  54 C :   -0.000014
  55 C :   -0.000001
  56 C :   -0.000001
  57 O :   -0.000279
  58 C :   -0.000526
  59 O :   -0.000323
  60 C :   -0.000623
  61 O :   -0.000232
  62 C :   -0.001611
  63 O :   -0.003466
  64 O :   -0.000002
  65 N :   -0.000000
  66 O :   -0.000000
  67 H :   -0.000000
  68 H :   -0.000000
  69 H :   -0.000000
  70 H :   -0.000000
  71 H :   -0.000000
  72 H :   -0.000000
  73 H :   -0.000000
  74 H :   -0.000000
  75 H :   -0.000002
  76 H :   -0.000115
  77 H :   -0.000000
  78 H :   -0.000000
  79 H :   -0.000000
  80 H :   -0.000001
  81 H :   -0.000000
  82 H :   -0.000001
  83 H :   -0.000000
  84 H :   -0.000000
  85 H :   -0.000018
  86 H :   -0.000105
  87 H :   -0.000295
  88 H :   -0.000992
  89 H :   -0.000918
  90 H :   -0.000040
  91 H :   -0.002584
  92 H :   -0.000001
  93 H :   -0.000000
  94 H :   -0.000000
  95 H :   -0.000000

-------------------------------
LOEWDIN REDUCED ORBITAL CHARGES
-------------------------------
  0 C s       :     2.887820  s :     2.887820
      pz      :     1.058114  p :     2.976560
      px      :     0.919157
      py      :     0.999290
      dz2     :     0.031640  d :     0.150285
      dxz     :     0.029374
      dyz     :     0.020317
      dx2y2   :     0.030409
      dxy     :     0.038545

  1 C s       :     2.887772  s :     2.887772
      pz      :     1.008727  p :     2.966721
      px      :     1.040171
      py      :     0.917823
      dz2     :     0.035952  d :     0.152046
      dxz     :     0.027001
      dyz     :     0.032898
      dx2y2   :     0.023886
      dxy     :     0.032308

  2 C s       :     2.868487  s :     2.868487
      pz      :     1.022992  p :     3.059033
      px      :     1.032688
      py      :     1.003353
      dz2     :     0.028268  d :     0.101217
      dxz     :     0.029608
      dyz     :     0.015247
      dx2y2   :     0.013521
      dxy     :     0.014572

  3 C s       :     2.913718  s :     2.913718
      pz      :     1.066595  p :     3.122237
      px      :     1.042584
      py      :     1.013058
      dz2     :     0.026949  d :     0.086504
      dxz     :     0.024466
      dyz     :     0.019245
      dx2y2   :     0.005899
      dxy     :     0.009946

  4 C s       :     2.914438  s :     2.914438
      pz      :     1.074534  p :     3.128437
      px      :     1.037612
      py      :     1.016291
      dz2     :     0.021680  d :     0.084329
      dxz     :     0.026539
      dyz     :     0.016945
      dx2y2   :     0.008202
      dxy     :     0.010963

  5 C s       :     2.860680  s :     2.860680
      pz      :     1.037784  p :     3.033071
      px      :     1.018717
      py      :     0.976570
      dz2     :     0.028198  d :     0.106188
      dxz     :     0.029837
      dyz     :     0.021062
      dx2y2   :     0.012874
      dxy     :     0.014217

  6 C s       :     2.913252  s :     2.913252
      pz      :     1.060404  p :     3.195656
      px      :     1.058185
      py      :     1.077067
      dz2     :     0.020481  d :     0.080903
      dxz     :     0.024866
      dyz     :     0.014189
      dx2y2   :     0.009599
      dxy     :     0.011768

  7 C s       :     2.851868  s :     2.851868
      pz      :     0.890467  p :     2.906052
      px      :     1.033725
      py      :     0.981859
      dz2     :     0.048146  d :     0.169734
      dxz     :     0.050581
      dyz     :     0.035663
      dx2y2   :     0.018413
      dxy     :     0.016931

  8 C s       :     2.915626  s :     2.915626
      pz      :     1.049880  p :     3.150127
      px      :     1.060818
      py      :     1.039429
      dz2     :     0.023491  d :     0.080137
      dxz     :     0.025007
      dyz     :     0.016608
      dx2y2   :     0.006384
      dxy     :     0.008648

  9 C s       :     2.862185  s :     2.862185
      pz      :     1.042834  p :     3.034535
      px      :     1.020979
      py      :     0.970722
      dz2     :     0.028165  d :     0.105815
      dxz     :     0.031400
      dyz     :     0.020574
      dx2y2   :     0.012278
      dxy     :     0.013397

 10 C s       :     2.916890  s :     2.916890
      pz      :     1.068812  p :     3.121185
      px      :     1.047229
      py      :     1.005144
      dz2     :     0.026308  d :     0.084797
      dxz     :     0.025847
      dyz     :     0.018444
      dx2y2   :     0.005580
      dxy     :     0.008617

 11 C s       :     2.917648  s :     2.917648
      pz      :     1.084571  p :     3.115168
      px      :     1.031511
      py      :     0.999086
      dz2     :     0.022261  d :     0.084841
      dxz     :     0.028360
      dyz     :     0.016352
      dx2y2   :     0.008042
      dxy     :     0.009826

 12 C s       :     2.866064  s :     2.866064
      pz      :     1.055694  p :     3.033641
      px      :     1.011811
      py      :     0.966136
      dz2     :     0.028671  d :     0.105157
      dxz     :     0.031068
      dyz     :     0.021509
      dx2y2   :     0.011577
      dxy     :     0.012331

 13 C s       :     2.925949  s :     2.925949
      pz      :     1.077943  p :     3.136102
      px      :     1.045403
      py      :     1.012756
      dz2     :     0.021652  d :     0.080685
      dxz     :     0.030657
      dyz     :     0.011165
      dx2y2   :     0.007939
      dxy     :     0.009273

 14 C s       :     2.860916  s :     2.860916
      pz      :     1.027770  p :     3.035553
      px      :     1.019795
      py      :     0.987988
      dz2     :     0.026840  d :     0.101272
      dxz     :     0.030642
      dyz     :     0.017360
      dx2y2   :     0.012446
      dxy     :     0.013985

 15 C s       :     2.857105  s :     2.857105
      pz      :     1.031887  p :     3.054646
      px      :     1.019902
      py      :     1.002857
      dz2     :     0.027964  d :     0.100107
      dxz     :     0.029057
      dyz     :     0.018038
      dx2y2   :     0.011778
      dxy     :     0.013271

 16 H s       :     0.871117  s :     0.871117

 17 H s       :     0.874051  s :     0.874051

 18 H s       :     0.866709  s :     0.866709

 19 H s       :     0.868376  s :     0.868376

 20 H s       :     0.872003  s :     0.872003

 21 H s       :     0.853792  s :     0.853792

 22 H s       :     0.859120  s :     0.859120

 23 H s       :     0.863539  s :     0.863539

 24 H s       :     0.861894  s :     0.861894

 25 O s       :     3.589135  s :     3.589135
      pz      :     1.607337  p :     4.581301
      px      :     1.494080
      py      :     1.479884
      dz2     :     0.009883  d :     0.067483
      dxz     :     0.008177
      dyz     :     0.012762
      dx2y2   :     0.016005
      dxy     :     0.020656

 26 O s       :     3.527343  s :     3.527343
      pz      :     1.309464  p :     4.734773
      px      :     1.664487
      py      :     1.760822
      dz2     :     0.010298  d :     0.053032
      dxz     :     0.020750
      dyz     :     0.011676
      dx2y2   :     0.003408
      dxy     :     0.006901

 27 H s       :     0.673387  s :     0.673387

 28 C s       :     0.000000  s :     0.000000
      pz      :     0.000000  p :     0.000000
      px      :     0.000000
      py      :     0.000000
      dz2     :     0.000000  d :     0.000000
      dxz     :     0.000000
      dyz     :     0.000000
      dx2y2   :     0.000000
      dxy     :     0.000000

 29 C s       :     0.000000  s :     0.000000
      pz      :     0.000000  p :     0.000000
      px      :     0.000000
      py      :     0.000000
      dz2     :     0.000000  d :     0.000000
      dxz     :     0.000000
      dyz     :     0.000000
      dx2y2   :     0.000000
      dxy     :     0.000000

 30 C s       :     0.000000  s :     0.000000
      pz      :     0.000000  p :     0.000000
      px      :     0.000000
      py      :     0.000000
      dz2     :     0.000000  d :     0.000000
      dxz     :     0.000000
      dyz     :     0.000000
      dx2y2   :     0.000000
      dxy     :     0.000000

 31 C s       :     0.000000  s :     0.000000
      pz      :     0.000000  p :     0.000000
      px      :     0.000000
      py      :     0.000000
      dz2     :     0.000000  d :     0.000000
      dxz     :     0.000000
      dyz     :     0.000000
      dx2y2   :     0.000000
      dxy     :     0.000000

 32 C s       :     0.000000  s :     0.000000
      pz      :     0.000000  p :     0.000000
      px      :     0.000000
      py      :     0.000000
      dz2     :     0.000000  d :     0.000000
      dxz     :     0.000000
      dyz     :     0.000000
      dx2y2   :     0.000000
      dxy     :     0.000000

 33 C s       :     0.000000  s :     0.000000
      pz      :     0.000000  p :     0.000000
      px      :     0.000000
      py      :     0.000000
      dz2     :     0.000000  d :     0.000000
      dxz     :     0.000000
      dyz     :     0.000000
      dx2y2   :     0.000000
      dxy     :     0.000000

 34 O s       :     0.000000  s :     0.000000
      pz      :     0.000000  p :     0.000000
      px      :     0.000000
      py      :     0.000000
      dz2     :     0.000000  d :     0.000000
      dxz     :     0.000000
      dyz     :     0.000000
      dx2y2   :     0.000000
      dxy     :     0.000000

 35 O s       :     0.000000  s :     0.000000
      pz      :     0.000000  p :     0.000001
      px      :     0.000000
      py      :     0.000000
      dz2     :     0.000000  d :     0.000000
      dxz     :     0.000000
      dyz     :     0.000000
      dx2y2   :     0.000000
      dxy     :     0.000000

 36 C s       :     0.000001  s :     0.000001
      pz      :     0.000002  p :     0.000018
      px      :     0.000013
      py      :     0.000003
      dz2     :     0.000000  d :     0.000000
      dxz     :     0.000000
      dyz     :     0.000000
      dx2y2   :     0.000000
      dxy     :     0.000000

 37 C s       :     0.000001  s :     0.000001
      pz      :     0.000001  p :     0.000001
      px      :     0.000000
      py      :     0.000000
      dz2     :     0.000000  d :     0.000000
      dxz     :     0.000000
      dyz     :     0.000000
      dx2y2   :     0.000000
      dxy     :     0.000000

 38 C s       :     0.000004  s :     0.000004
      pz      :     0.000005  p :     0.000008
      px      :     0.000001
      py      :     0.000001
      dz2     :     0.000000  d :     0.000000
      dxz     :     0.000000
      dyz     :     0.000000
      dx2y2   :     0.000000
      dxy     :     0.000000

 39 C s       :     0.000001  s :     0.000001
      pz      :     0.000001  p :     0.000002
      px      :     0.000001
      py      :     0.000000
      dz2     :     0.000000  d :     0.000000
      dxz     :     0.000000
      dyz     :     0.000000
      dx2y2   :     0.000000
      dxy     :     0.000000

 40 C s       :     0.000009  s :     0.000009
      pz      :     0.000007  p :     0.000042
      px      :     0.000029
      py      :     0.000006
      dz2     :     0.000000  d :     0.000000
      dxz     :     0.000000
      dyz     :     0.000000
      dx2y2   :     0.000000
      dxy     :     0.000000

 41 C s       :     0.000041  s :     0.000041
      pz      :     0.000025  p :     0.000174
      px      :     0.000143
      py      :     0.000007
      dz2     :     0.000000  d :     0.000001
      dxz     :     0.000000
      dyz     :     0.000000
      dx2y2   :     0.000000
      dxy     :     0.000000

 42 C s       :     0.000235  s :     0.000235
      pz      :     0.000282  p :     0.001116
      px      :     0.000587
      py      :     0.000246
      dz2     :     0.000000  d :     0.000004
      dxz     :     0.000003
      dyz     :     0.000001
      dx2y2   :     0.000000
      dxy     :     0.000001

 43 C s       :     0.000135  s :     0.000135
      pz      :     0.000144  p :     0.000550
      px      :     0.000246
      py      :     0.000160
      dz2     :     0.000000  d :     0.000002
      dxz     :     0.000001
      dyz     :     0.000001
      dx2y2   :     0.000000
      dxy     :     0.000000

 44 C s       :     0.000013  s :     0.000013
      pz      :     0.000013  p :     0.000062
      px      :     0.000020
      py      :     0.000028
      dz2     :     0.000000  d :     0.000000
      dxz     :     0.000000
      dyz     :     0.000000
      dx2y2   :     0.000000
      dxy     :     0.000000

 45 C s       :     0.000006  s :     0.000006
      pz      :     0.000005  p :     0.000026
      px      :     0.000012
      py      :     0.000009
      dz2     :     0.000000  d :     0.000000
      dxz     :     0.000000
      dyz     :     0.000000
      dx2y2   :     0.000000
      dxy     :     0.000000

 46 O s       :     0.000000  s :     0.000000
      pz      :     0.000000  p :     0.000000
      px      :     0.000000
      py      :     0.000000
      dz2     :     0.000000  d :     0.000000
      dxz     :     0.000000
      dyz     :     0.000000
      dx2y2   :     0.000000
      dxy     :     0.000000

 47 C s       :     0.000001  s :     0.000001
      pz      :     0.000001  p :     0.000006
      px      :     0.000002
      py      :     0.000003
      dz2     :     0.000000  d :     0.000000
      dxz     :     0.000000
      dyz     :     0.000000
      dx2y2   :     0.000000
      dxy     :     0.000000

 48 O s       :     0.000000  s :     0.000000
      pz      :     0.000000  p :     0.000000
      px      :     0.000000
      py      :     0.000000
      dz2     :     0.000000  d :     0.000000
      dxz     :     0.000000
      dyz     :     0.000000
      dx2y2   :     0.000000
      dxy     :     0.000000

 49 C s       :     0.000003  s :     0.000003
      pz      :     0.000002  p :     0.000011
      px      :     0.000002
      py      :     0.000007
      dz2     :     0.000000  d :     0.000000
      dxz     :     0.000000
      dyz     :     0.000000
      dx2y2   :     0.000000
      dxy     :     0.000000

 50 C s       :     0.000106  s :     0.000106
      pz      :     0.000045  p :     0.000302
      px      :     0.000057
      py      :     0.000199
      dz2     :     0.000000  d :     0.000001
      dxz     :     0.000000
      dyz     :     0.000000
      dx2y2   :     0.000000
      dxy     :     0.000000

 51 C s       :     0.000599  s :     0.000599
      pz      :     0.000246  p :     0.002138
      px      :     0.001116
      py      :     0.000776
      dz2     :     0.000000  d :     0.000009
      dxz     :     0.000004
      dyz     :     0.000001
      dx2y2   :     0.000001
      dxy     :     0.000003

 52 O s       :     0.000301  s :     0.000301
      pz      :     0.000351  p :     0.001334
      px      :     0.000622
      py      :     0.000361
      dz2     :     0.000001  d :     0.000039
      dxz     :     0.000015
      dyz     :     0.000009
      dx2y2   :     0.000001
      dxy     :     0.000013

 53 C s       :     0.000074  s :     0.000074
      pz      :     0.000029  p :     0.000256
      px      :     0.000067
      py      :     0.000160
      dz2     :     0.000000  d :     0.000001
      dxz     :     0.000000
      dyz     :     0.000000
      dx2y2   :     0.000000
      dxy     :     0.000000

 54 C s       :     0.000006  s :     0.000006
      pz      :     0.000000  p :     0.000008
      px      :     0.000002
      py      :     0.000006
      dz2     :     0.000000  d :     0.000000
      dxz     :     0.000000
      dyz     :     0.000000
      dx2y2   :     0.000000
      dxy     :     0.000000

 55 C s       :     0.000000  s :     0.000000
      pz      :     0.000000  p :     0.000001
      px      :     0.000000
      py      :     0.000000
      dz2     :     0.000000  d :     0.000000
      dxz     :     0.000000
      dyz     :     0.000000
      dx2y2   :     0.000000
      dxy     :     0.000000

 56 C s       :     0.000000  s :     0.000000
      pz      :     0.000000  p :     0.000001
      px      :     0.000000
      py      :     0.000001
      dz2     :     0.000000  d :     0.000000
      dxz     :     0.000000
      dyz     :     0.000000
      dx2y2   :     0.000000
      dxy     :     0.000000

 57 O s       :     0.000032  s :     0.000032
      pz      :     0.000068  p :     0.000240
      px      :     0.000059
      py      :     0.000113
      dz2     :     0.000000  d :     0.000007
      dxz     :     0.000002
      dyz     :     0.000002
      dx2y2   :     0.000000
      dxy     :     0.000002

 58 C s       :     0.000043  s :     0.000043
      pz      :     0.000236  p :     0.000483
      px      :     0.000014
      py      :     0.000232
      dz2     :     0.000000  d :     0.000001
      dxz     :     0.000000
      dyz     :     0.000000
      dx2y2   :     0.000000
      dxy     :     0.000000

 59 O s       :     0.000031  s :     0.000031
      pz      :     0.000127  p :     0.000284
      px      :     0.000132
      py      :     0.000025
      dz2     :     0.000000  d :     0.000007
      dxz     :     0.000004
      dyz     :     0.000001
      dx2y2   :     0.000001
      dxy     :     0.000001

 60 C s       :     0.000106  s :     0.000106
      pz      :     0.000010  p :     0.000515
      px      :     0.000499
      py      :     0.000006
      dz2     :     0.000000  d :     0.000001
      dxz     :     0.000000
      dyz     :     0.000000
      dx2y2   :     0.000000
      dxy     :     0.000000

 61 O s       :     0.000031  s :     0.000031
      pz      :     0.000002  p :     0.000194
      px      :     0.000173
      py      :     0.000019
      dz2     :     0.000003  d :     0.000007
      dxz     :     0.000000
      dyz     :     0.000000
      dx2y2   :     0.000003
      dxy     :     0.000001

 62 C s       :     0.000213  s :     0.000213
      pz      :     0.000183  p :     0.001394
      px      :     0.001177
      py      :     0.000034
      dz2     :     0.000000  d :     0.000003
      dxz     :     0.000001
      dyz     :     0.000001
      dx2y2   :     0.000001
      dxy     :     0.000000

 63 O s       :     0.000521  s :     0.000521
      pz      :     0.000408  p :     0.002872
      px      :     0.002219
      py      :     0.000244
      dz2     :     0.000007  d :     0.000073
      dxz     :     0.000023
      dyz     :     0.000001
      dx2y2   :     0.000026
      dxy     :     0.000016

 64 O s       :     0.000000  s :     0.000000
      pz      :     0.000000  p :     0.000001
      px      :     0.000001
      py      :     0.000000
      dz2     :     0.000000  d :     0.000000
      dxz     :     0.000000
      dyz     :     0.000000
      dx2y2   :     0.000000
      dxy     :     0.000000

 65 N s       :     0.000000  s :     0.000000
      pz      :     0.000000  p :     0.000000
      px      :     0.000000
      py      :     0.000000
      dz2     :     0.000000  d :     0.000000
      dxz     :     0.000000
      dyz     :     0.000000
      dx2y2   :     0.000000
      dxy     :     0.000000

 66 O s       :     0.000000  s :     0.000000
      pz      :     0.000000  p :     0.000000
      px      :     0.000000
      py      :     0.000000
      dz2     :     0.000000  d :     0.000000
      dxz     :     0.000000
      dyz     :     0.000000
      dx2y2   :     0.000000
      dxy     :     0.000000

 67 H s       :     0.000000  s :     0.000000

 68 H s       :     0.000000  s :     0.000000

 69 H s       :     0.000000  s :     0.000000

 70 H s       :     0.000000  s :     0.000000

 71 H s       :     0.000000  s :     0.000000

 72 H s       :     0.000000  s :     0.000000

 73 H s       :     0.000000  s :     0.000000

 74 H s       :     0.000000  s :     0.000000

 75 H s       :     0.000002  s :     0.000002

 76 H s       :     0.000115  s :     0.000115

 77 H s       :     0.000000  s :     0.000000

 78 H s       :     0.000000  s :     0.000000

 79 H s       :     0.000000  s :     0.000000

 80 H s       :     0.000001  s :     0.000001

 81 H s       :     0.000000  s :     0.000000

 82 H s       :     0.000001  s :     0.000001

 83 H s       :     0.000000  s :     0.000000

 84 H s       :     0.000000  s :     0.000000

 85 H s       :     0.000018  s :     0.000018

 86 H s       :     0.000105  s :     0.000105

 87 H s       :     0.000295  s :     0.000295

 88 H s       :     0.000992  s :     0.000992

 89 H s       :     0.000918  s :     0.000918

 90 H s       :     0.000040  s :     0.000040

 91 H s       :     0.002584  s :     0.002584

 92 H s       :     0.000001  s :     0.000001

 93 H s       :     0.000000  s :     0.000000

 94 H s       :     0.000000  s :     0.000000

 95 H s       :     0.000000  s :     0.000000



                      *****************************
                      * MAYER POPULATION ANALYSIS *
                      *****************************

  NA   - Mulliken gross atomic population
  ZA   - Total nuclear charge
  QA   - Mulliken gross atomic charge
  VA   - Mayer's total valence
  BVA  - Mayer's bonded valence
  FA   - Mayer's free valence

  ATOM       NA         ZA         QA         VA         BVA        FA
  0 C      5.9518     6.0000     0.0482     3.8232     3.8232     0.0000
  1 C      6.0342     6.0000    -0.0342     3.8225     3.8225     0.0000
  2 C      5.8426     6.0000     0.1574     3.8600     3.8600     0.0000
  3 C      6.1934     6.0000    -0.1934     3.8770     3.8770     0.0000
  4 C      6.2079     6.0000    -0.2079     3.8745     3.8745     0.0000
  5 C      5.8330     6.0000     0.1670     3.9677     3.9677    -0.0000
  6 C      6.3058     6.0000    -0.3058     3.8419     3.8419     0.0000
  7 C      5.6223     6.0000     0.3777     3.8039     3.8039    -0.0000
  8 C      6.2783     6.0000    -0.2783     3.8604     3.8604    -0.0000
  9 C      5.8398     6.0000     0.1602     3.9442     3.9442    -0.0000
 10 C      6.1960     6.0000    -0.1960     3.8773     3.8773     0.0000
 11 C      6.1912     6.0000    -0.1912     3.8762     3.8762     0.0000
 12 C      5.8209     6.0000     0.1791     3.9593     3.9593    -0.0000
 13 C      6.2223     6.0000    -0.2223     3.8542     3.8542    -0.0000
 14 C      6.0003     6.0000    -0.0003     3.9844     3.9844    -0.0000
 15 C      6.0036     6.0000    -0.0036     3.9782     3.9782    -0.0000
 16 H      0.8571     1.0000     0.1429     0.9340     0.9340    -0.0000
 17 H      0.8642     1.0000     0.1358     0.9367     0.9367     0.0000
 18 H      0.8707     1.0000     0.1293     0.9411     0.9411    -0.0000
 19 H      0.8733     1.0000     0.1267     0.9408     0.9408    -0.0000
 20 H      0.8827     1.0000     0.1173     0.9432     0.9432     0.0000
 21 H      0.8508     1.0000     0.1492     0.9379     0.9379     0.0000
 22 H      0.8530     1.0000     0.1470     0.9335     0.9335    -0.0000
 23 H      0.8629     1.0000     0.1371     0.9386     0.9386     0.0000
 24 H      0.8595     1.0000     0.1405     0.9367     0.9367    -0.0000
 25 O      8.4449     8.0000    -0.4449     1.8911     1.8911     0.0000
 26 O      8.6398     8.0000    -0.6398     1.8745     1.8745    -0.0000
 27 H      0.5873     1.0000     0.4127     0.8003     0.8003    -0.0000
 28 C     -0.0000     0.0000     0.0000    -0.0000    -0.0000     0.0000
 29 C      0.0000     0.0000    -0.0000     0.0000     0.0000    -0.0000
 30 C     -0.0000     0.0000     0.0000    -0.0000    -0.0000     0.0000
 31 C      0.0000     0.0000    -0.0000     0.0000     0.0000    -0.0000
 32 C     -0.0000     0.0000     0.0000    -0.0000    -0.0000    -0.0000
 33 C     -0.0000     0.0000     0.0000    -0.0000    -0.0000     0.0000
 34 O      0.0000     0.0000    -0.0000     0.0000     0.0000     0.0000
 35 O      0.0000     0.0000    -0.0000     0.0000     0.0000     0.0000
 36 C     -0.0001     0.0000     0.0001    -0.0001    -0.0001    -0.0000
 37 C      0.0000     0.0000    -0.0000     0.0000     0.0000    -0.0000
 38 C     -0.0000     0.0000     0.0000    -0.0001    -0.0001     0.0000
 39 C     -0.0000     0.0000     0.0000    -0.0000    -0.0000     0.0000
 40 C     -0.0001     0.0000     0.0001    -0.0001    -0.0001    -0.0000
 41 C      0.0004     0.0000    -0.0004     0.0009     0.0009     0.0000
 42 C      0.0009     0.0000    -0.0009     0.0017     0.0017    -0.0000
 43 C      0.0009     0.0000    -0.0009     0.0019     0.0019     0.0000
 44 C     -0.0006     0.0000     0.0006    -0.0011    -0.0011     0.0000
 45 C      0.0001     0.0000    -0.0001     0.0002     0.0002    -0.0000
 46 O     -0.0000     0.0000     0.0000    -0.0000    -0.0000     0.0000
 47 C      0.0001     0.0000    -0.0001     0.0001     0.0001     0.0000
 48 O     -0.0000     0.0000     0.0000    -0.0000    -0.0000    -0.0000
 49 C     -0.0006     0.0000     0.0006    -0.0011    -0.0011    -0.0000
 50 C      0.0001     0.0000    -0.0001     0.0002     0.0002     0.0000
 51 C      0.0043     0.0000    -0.0043     0.0086     0.0086    -0.0000
 52 O     -0.0011     0.0000     0.0011    -0.0021    -0.0021     0.0000
 53 C      0.0012     0.0000    -0.0012     0.0024     0.0024    -0.0000
 54 C      0.0001     0.0000    -0.0001     0.0001     0.0001     0.0000
 55 C     -0.0000     0.0000     0.0000    -0.0000    -0.0000    -0.0000
 56 C      0.0000     0.0000    -0.0000     0.0000     0.0000     0.0000
 57 O     -0.0002     0.0000     0.0002    -0.0004    -0.0004    -0.0000
 58 C      0.0001     0.0000    -0.0001     0.0002     0.0002    -0.0000
 59 O     -0.0002     0.0000     0.0002    -0.0003    -0.0003     0.0000
 60 C      0.0004     0.0000    -0.0004     0.0008     0.0008    -0.0000
 61 O      0.0000     0.0000    -0.0000     0.0000     0.0000     0.0000
 62 C      0.0003     0.0000    -0.0003     0.0007     0.0007    -0.0000
 63 O      0.0000     0.0000    -0.0000     0.0000     0.0000     0.0000
 64 O     -0.0000     0.0000     0.0000    -0.0000    -0.0000     0.0000
 65 N     -0.0000     0.0000     0.0000    -0.0000    -0.0000     0.0000
 66 O     -0.0000     0.0000     0.0000    -0.0000    -0.0000    -0.0000
 67 H      0.0000     0.0000    -0.0000     0.0000     0.0000     0.0000
 68 H      0.0000     0.0000    -0.0000     0.0000     0.0000     0.0000
 69 H      0.0000     0.0000    -0.0000     0.0000     0.0000     0.0000
 70 H     -0.0000     0.0000     0.0000    -0.0000    -0.0000     0.0000
 71 H     -0.0000     0.0000     0.0000    -0.0000    -0.0000     0.0000
 72 H     -0.0000     0.0000     0.0000    -0.0000    -0.0000     0.0000
 73 H     -0.0000     0.0000     0.0000    -0.0000    -0.0000    -0.0000
 74 H     -0.0000     0.0000     0.0000    -0.0000    -0.0000     0.0000
 75 H      0.0000     0.0000    -0.0000     0.0000     0.0000     0.0000
 76 H      0.0002     0.0000    -0.0002     0.0004     0.0004     0.0000
 77 H     -0.0000     0.0000     0.0000    -0.0000    -0.0000     0.0000
 78 H     -0.0000     0.0000     0.0000    -0.0000    -0.0000    -0.0000
 79 H     -0.0000     0.0000     0.0000    -0.0000    -0.0000     0.0000
 80 H     -0.0000     0.0000     0.0000    -0.0000    -0.0000     0.0000
 81 H     -0.0000     0.0000     0.0000    -0.0000    -0.0000    -0.0000
 82 H      0.0000     0.0000    -0.0000     0.0000     0.0000    -0.0000
 83 H     -0.0000     0.0000     0.0000    -0.0000    -0.0000    -0.0000
 84 H      0.0000     0.0000    -0.0000     0.0000     0.0000    -0.0000
 85 H      0.0000     0.0000    -0.0000     0.0000     0.0000     0.0000
 86 H      0.0001     0.0000    -0.0001     0.0003     0.0003    -0.0000
 87 H      0.0004     0.0000    -0.0004     0.0007     0.0007    -0.0000
 88 H      0.0007     0.0000    -0.0007     0.0013     0.0013    -0.0000
 89 H      0.0014     0.0000    -0.0014     0.0029     0.0029    -0.0000
 90 H      0.0000     0.0000    -0.0000     0.0001     0.0001    -0.0000
 91 H      0.0013     0.0000    -0.0013     0.0025     0.0025     0.0000
 92 H     -0.0000     0.0000     0.0000    -0.0000    -0.0000     0.0000
 93 H     -0.0000     0.0000     0.0000    -0.0000    -0.0000    -0.0000
 94 H     -0.0000     0.0000     0.0000    -0.0000    -0.0000    -0.0000
 95 H     -0.0000     0.0000     0.0000    -0.0000    -0.0000     0.0000

  Mayer bond orders larger than 0.100000
B(  0-C ,  1-C ) :   0.9078 B(  0-C , 13-C ) :   1.0543 B(  0-C , 16-H ) :   0.9208 
B(  0-C , 25-O ) :   0.8745 B(  1-C ,  2-C ) :   1.0054 B(  1-C , 17-H ) :   0.9175 
B(  1-C , 25-O ) :   0.8906 B(  2-C ,  3-C ) :   1.2996 B(  2-C , 14-C ) :   1.4039 
B(  3-C ,  4-C ) :   1.4904 B(  3-C , 18-H ) :   0.9251 B(  4-C ,  5-C ) :   1.2630 
B(  4-C , 19-H ) :   0.9246 B(  5-C ,  6-C ) :   1.2667 B(  5-C , 15-C ) :   1.2963 
B(  6-C ,  7-C ) :   1.4217 B(  6-C , 20-H ) :   0.9149 B(  7-C ,  8-C ) :   1.2802 
B(  7-C , 26-O ) :   0.9481 B(  8-C ,  9-C ) :   1.4342 B(  8-C , 21-H ) :   0.9134 
B(  9-C , 10-C ) :   1.1296 B(  9-C , 15-C ) :   1.2529 B( 10-C , 11-C ) :   1.6741 
B( 10-C , 22-H ) :   0.9196 B( 11-C , 12-C ) :   1.1283 B( 11-C , 23-H ) :   0.9224 
B( 12-C , 13-C ) :   1.6082 B( 12-C , 14-C ) :   1.1370 B( 13-C , 24-H ) :   0.9179 
B( 14-C , 15-C ) :   1.2595 B( 26-O , 27-H ) :   0.7777 

-------
TIMINGS
-------

Total SCF time: 0 days 0 hours 9 min 43 sec 

Total time                  ....     583.618 sec
Sum of individual times     ....     559.168 sec  ( 95.8%)

SCF preparation             ....       0.500 sec  (  0.1%)
Fock matrix formation       ....     552.945 sec  ( 94.7%)
  Startup                   ....       0.082 sec  (  0.0% of F)
  Split-RI-J                ....     125.275 sec  ( 22.7% of F)
  Chain of spheres X        ....     376.546 sec  ( 68.1% of F)
  XC integration            ....      74.967 sec  ( 13.6% of F)
    Basis function eval.    ....      25.685 sec  ( 34.3% of XC)
    Density eval.           ....      16.844 sec  ( 22.5% of XC)
    XC-Functional eval.     ....       2.239 sec  (  3.0% of XC)
    XC-Potential eval.      ....      26.387 sec  ( 35.2% of XC)
Diagonalization             ....       0.000 sec  (  0.0%)
Density matrix formation    ....       0.396 sec  (  0.1%)
Total Energy calculation    ....       0.149 sec  (  0.0%)
Population analysis         ....       0.262 sec  (  0.0%)
Orbital Transformation      ....       0.691 sec  (  0.1%)
Orbital Orthonormalization  ....       0.000 sec  (  0.0%)
DIIS solution               ....       2.933 sec  (  0.5%)
SOSCF solution              ....       1.292 sec  (  0.2%)
Finished LeanSCF after 583.7 sec

Maximum memory used throughout the entire LEANSCF-calculation: 179.5 MB

-------------------------   --------------------
FINAL SINGLE POINT ENERGY      -765.673850969696
-------------------------   --------------------


------------------------------------------------------------------------------
                              ORCA PROPERTY CALCULATIONS
------------------------------------------------------------------------------

GBWName                                 ... doxorubicin_dimerbasis_GO.gbw
Number of atoms                         ...     96
Number of basis functions               ...    876
Max core memory                         ...    800 MB

Electric properties:
Dipole moment                           ... YES
Quadrupole moment                       ...  NO
Static polarizability (Dipole/Dipole)   ...  NO
Static polarizability (Dipole/Quad.)    ...  NO
Static polarizability (Quad./Quad.)     ...  NO
Static polarizability (Velocity)        ...  NO
Static hyperpolarizability              ...  NO

Atomic electric properties:
Dipole moment                           ...  NO
Quadrupole moment                       ...  NO
Static polarizability                   ...  NO

Choice of electric origin               ... Center of mass
Position of electric origin             ...     0.760168     0.285244    -0.226684

General magnetic properties:
Magnetizability                         ...  NO

EPR properties:
g-Tensor (aka g-matrix)                 ...  NO
Zero-Field splitting spin-orbit         ...  NO
Zero-field splitting spin-spin          ...  NO
Hyperfine couplings                     ...  NO (   0 nuclei)
Quadrupole couplings                    ...  NO (   0 nuclei)
Contact density                         ...  NO (   0 nuclei)

NMR properties:
Chemical shifts                         ...  NO (   0 nuclei)
Spin-rotation constants                 ...  NO (   0 nuclei)
Spin-spin couplings                     ...  NO (   0 nuclei,    0 pairs)

Choice of magnetic origin               ... GIAO
Position of magnetic origin             ...     0.000000     0.000000     0.000000

Properties with geometric perturbations:
SCF Hessian                             ...  NO
IR spectrum                             ...  NO
VCD spectrum                            ...  NO
X-ray spectroscopy properties:
SCF XES/XAS/RIXS spectra                ...  NO

SCF SOC stabilization energy            ...  NO
Diagonal Born-Oppenheimer correction    ...  NO

-------------
DIPOLE MOMENT
-------------

Method             : SCF
Type of density    : Electron Density
Multiplicity       :   1
Irrep              :   0
Energy             :  -765.6738509696957635 Eh
Basis              : AO
                                X                 Y                 Z
Electronic contribution:     -0.541875504      -1.018636079       0.760966595
Nuclear contribution   :      0.703419499       1.785137018      -0.292043082
                        -----------------------------------------
Total Dipole Moment    :      0.161543995       0.766500940       0.468923513
                        -----------------------------------------
Magnitude (a.u.)       :      0.912967367
Magnitude (Debye)      :      2.320578628



--------------------
Rotational spectrum 
--------------------
 
Rotational constants in cm-1:             0.031631             0.011019             0.008339 
Rotational constants in MHz :           948.260672           330.348100           249.996766 

Dipole components along the rotational axes: 
x,y,z [a.u.] :     0.477475    -0.395015     0.670440 
x,y,z [Debye]:     1.213645    -1.004049     1.704124 

 

Dipole moment calculation done in   0.0 sec 

Maximum memory used throughout the entire PROP-calculation: 91.3 MB

--------------------------------
SUGGESTED CITATIONS FOR THIS RUN
--------------------------------

Below you find a list of papers that are relevant to this ORCA run
We neither can nor want to force you to cite these papers, but we appreciate if you do
You receive ORCA, which is the product of decades of hard work by many enthusiastic individuals, for free
The only thing we kindly ask in return is that you cite our papers,
We deeply appreciate it, if you show your appreciation for ORCA by not just citing the generic ORCA reference.

Please note that relegating all ORCA citations to the supporting information does *not* help us.
SI sections are not indexed - citations you put there will not count into any citation statistics
But we need these citations in order to attract the funding resources that allow us to do what we are doing

Therefore, if you are a happy ORCA user, please consider citing a few of the papers listed below in the main body of your paper

In addition to the list printed below, the program has created the file doxorubicin_dimerbasis_GO.bibtex that contains the list in bibtex format
You can import this file easily into all common literature databanks and citation aid programs

It goes without saying that in many instances, there are alternative algorithms to achieve similar
results as the ones you have gotten from ORCA. It is, of course, also the case that in some instances
ORCA just re-implements algorithms worked out by others. We are fully aware of that and we are also
fully appreciative of our colleagues work. Hence this citation list should not be read as indicating
that the listed papers, which are focused on our own work, are the only ones worth citing. It simply
meant to make it easier for users to cite ORCA specific papers. It is not a substitute for doing your
own literature research and citing the relevant literature in a scientifically appropriate manner.

List of essential papers. We consider these as the minimum necessary citations

  1. Neese, F.
     Software update: the ORCA program system, version 6.0
     WIRES Comput. Molec. Sci. 2025 15(1), e70019
     doi.org/10.1002/wcms.70019

List of papers to cite with high priority. The work reported in these papers was absolutely
necessary for this run to complete.
Our perspective: the developers of density functionals and basis sets usually get cited in chemistry papers
Good! But without the algorithms to do something with them, the functionals or basis sets would not do anything.
Hence, in our opinion, the algorithm design and method developments papers are equally worthy of getting cited

  1. Neese, F.
     An improvement of the resolution of the identity approximation for the formation of the Coulomb matrix
     J. Comp. Chem. 2003 24(14), 1740-1747
     doi.org/10.1002/jcc.10318
  2. Neese, F.; Wennmohs, F.; Hansen, A.; Becker, U.
     Efficient, approximate and parallel Hartree-Fock and hybrid DFT calculations. A 'chain-of-spheres' algorithm for the Hartree-Fock exchange
     Chem. Phys. 2009 356(1-3), 98-109
     doi.org/10.1016/j.chemphys.2008.10.036
  3. Helmich-Paris, B.; de Souza, B.; Neese, F.; Izsák, R.
     An improved chain of spheres for exchange algorithm
     J. Chem. Phys. 2021 155(10), 104109
     doi.org/10.1063/5.0058766
  4. Neese, F.
     The SHARK Integral Generation and Digestion System
     J. Comp. Chem. 2022 44(3), 381
     doi.org/10.1002/jcc.26942

List of suggested additional citations. These are papers that are important in the 'surrounding' of 
of this run, or papers that preceded the highly important papers. If you like your results we are grateful for a citation.

  1. Izsak, R.; Neese, F.
     An overlap fitted chain of spheres exchange method
     J. Chem. Phys. 2011 135 , 144105
     doi.org/10.1063/1.3646921
  2. Izsak, R.; Hansen, A.; Neese, F.
     The resolution of identity and chain of spheres approximations for the LPNO-CCSD singles Fock term
     Molec. Phys. 2012 110 , 2413-2417
     doi.org/10.1080/00268976.2012.687466
  3. Neese, F.
     The ORCA program system
     WIRES Comput. Molec. Sci. 2012 2(1), 73-78
     doi.org/10.1002/wcms.81
  4. Izsak, R.; Neese, F.; Klopper, W.
     Robust fitting techniques in the chain of spheres approximation to the Fock exchange: The role of the complementary space
     J. Chem. Phys. 2013 139 , 
     doi.org/10.1063/1.4819264
  5. Neese, F.
     Software update: the ORCA program system, version 4.0
     WIRES Comput. Molec. Sci. 2018 8(1), 1-6
     doi.org/10.1002/wcms.1327
  6. Neese, F.; Wennmohs, F.; Becker, U.; Riplinger, C.
     The ORCA quantum chemistry program package
     J. Chem. Phys. 2020 152(22), 224108
     doi.org/10.1063/5.0004608
  7. Neese, F.
     Software update: The ORCA program system—Version 5.0
     WIRES Comput. Molec. Sci. 2022 12(1), e1606
     doi.org/10.1002/wcms.1606

List of optional additional citations

  1. Neese, F.
     Approximate second-order SCF convergence for spin unrestricted wavefunctions
     Chem. Phys. Lett. 2000 325(1-3), 93-98
     doi.org/10.1016/s0009-2614(00)00662-x

Timings for individual modules:

Sum of individual times          ...      626.258 sec (=  10.438 min)
Startup calculation              ...       31.495 sec (=   0.525 min)   5.0 %
SCF iterations                   ...      594.464 sec (=   9.908 min)  94.9 %
Property calculations            ...        0.299 sec (=   0.005 min)   0.0 %
                             ****ORCA TERMINATED NORMALLY****
TOTAL RUN TIME: 0 days 0 hours 10 minutes 26 seconds 644 msec
