
                                 *****************
                                 * O   R   C   A *
                                 *****************

                                            #,                                       
                                            ###                                      
                                            ####                                     
                                            #####                                    
                                            ######                                   
                                           ########,                                 
                                     ,,################,,,,,                         
                               ,,#################################,,                 
                          ,,##########################################,,             
                       ,#########################################, ''#####,          
                    ,#############################################,,   '####,        
                  ,##################################################,,,,####,       
                ,###########''''           ''''###############################       
              ,#####''   ,,,,##########,,,,          '''####'''          '####       
            ,##' ,,,,###########################,,,                        '##       
           ' ,,###''''                  '''############,,,                           
         ,,##''                                '''############,,,,        ,,,,,,###''
      ,#''                                            '''#######################'''  
     '                                                          ''''####''''         
             ,#######,   #######,   ,#######,      ##                                
            ,#'     '#,  ##    ##  ,#'     '#,    #''#        ,####,    ,#,          
            ##       ##  ##   ,#'  ##            #'  '#       #'       ,# #          
            ##       ##  #######   ##           ,######,      #####,      #          
            '#,     ,#'  ##    ##  '#,     ,#' ,#      #,     #,   #      #          
             '#######'   ##     ##  '#######'  #'      '#     '####' #    #          



                #########################################################
                #                        -***-                          #
                #          Department of theory and spectroscopy        #
                #                                                       #
                #                      Frank Neese                      #
                #                                                       #
                #     Directorship, Architecture, Infrastructure        #
                #                    SHARK, DRIVERS                     #
                #        Core code/Algorithms in most modules           #
                #                                                       #
                #        Max Planck Institute fuer Kohlenforschung      #
                #                Kaiser Wilhelm Platz 1                 #
                #                 D-45470 Muelheim/Ruhr                 #
                #                      Germany                          #
                #                                                       #
                #                  All rights reserved                  #
                #                        -***-                          #
                #########################################################


                         Program Version 6.1.1  -  RELEASE   -


 With contributions from (in alphabetic order):
[Max-Planck-Institut fuer Kohlenforschung]                               
  Daniel Aravena         : Magnetic Suceptibility                        
  Michael Atanasov       : Ab Initio Ligand Field Theory (pilot matlab implementation)
  Alexander A. Auer      : GIAO ZORA, VPT2 properties, NMR spectrum      
  Ute Becker             : All parallelization in ORCA, NUMFREQ, NUMCALC 
  Giovanni Bistoni       : ED, misc. LED, open-shell LED, HFLD           
  Dmytro Bykov           : pre 5.0 version of the SCF Hessian            
  Marcos Casanova-Páez   : Triplet and SCS-CIS(D). UHF-(DLPNO)-IP/EA/STEOM-CCSD. UHF-CVS-IP/STEOM-CCSD   
  Vijay G. Chilkuri      : MRCI spin determinant printing, contributions to CSF-ICE 
  Pauline Colinet        : FMM embedding                                 
  Dipayan Datta          : RHF DLPNO-CCSD density                        
  Achintya Kumar Dutta   : EOM-CC, STEOM-CC                              
  Nicolas Foglia         : Exact transition moments, OPA infrastructure, MCD improvements    
  Dmitry Ganyushin       : Spin-Orbit,Spin-Spin,Magnetic field MRCI      
  Miquel Garcia-Rates    : C-PCM and meta-GGA Hessian, CCSD/C-PCM, Gaussian charge scheme 
  Tiago L. C. Gouveia    : GS-ROHF, GS-ROCIS                             
  Yang Guo               : DLPNO-NEVPT2, F12-NEVPT2, CIM, IAO-localization        
  Andreas Hansen         : Spin unrestricted coupled pair/coupled cluster methods 
  Ingolf Harden          : AUTO-CI MPn and infrastructure                
  Benjamin Helmich-Paris : MC-RPA, TRAH-(SCF,CASSCF), AVAS, COSX integrals, SCF dyn. polar., MC-PDFT, srDFT 
  Lee Huntington         : MR-EOM, pCC                                   
  Robert Izsak           : Overlap fitted RIJCOSX, COSX-SCS-MP3, EOM     
  Riya Kayal             : Wick's Theorem for AUTO-CI, AUTO-CI UHF-CCSDT 
  Emily Kempfer          : AUTO-CI RHF CISDT and CCSDT, approximate NEVPT4
  Christian Kollmar      : KDIIS, OOCD, Brueckner-CCSD(T), CCSD density, CASPT2, CASPT2-K, improved NEVPT2 
  Axel Koslowski         : Symmetry handling                             
  Simone Kossmann        : meta-GGA functionals, TD-DFT gradient, OOMP2, (MP2 Hessian; deprecated post 5.0) 
  Lucas Lang             : DCDCAS, Hyperfine gauge corrections, ICE-SOC+SSC
  Marvin Lechner         : AUTO-CI (C++ implementation), FIC-MRCC        
  Spencer Leger          : CASSCF response                               
  Dagmar Lenk            : GEPOL surface, SMD, ORCA-2-JSON               
  Dimitrios Liakos       : Extrapolation schemes; Compound Job, Property file
  Dimitrios Manganas     : Further ROCIS development; embedding schemes. LFT, Crystal Embedding 
  Dimitrios Pantazis     : SARC Basis sets                               
  Anastasios Papadopoulos: AUTO-CI, single reference methods and gradients 
  Taras Petrenko         : pre 6.0 DFT Hessian and TD-DFT gradient,  ECA, NRVS 
  Petra Pikulova         : Analytic Raman intensities                    
  Peter Pinski           : DLPNO-MP2, DLPNO-MP2 Gradient                 
  Shashank Vittal Rao    : ES-AILFT, MagRelax                            
  Christoph Reimann      : Effective Core Potentials                     
  Marius Retegan         : Local ZFS, SOC                                
  Christoph Riplinger    : Optimizer, TS searches, QM/MM, DLPNO-CCSD(T), (RO)-DLPNO pert. Triples 
  Michael Roemelt        : Original ROCIS implementation, recursive CI coupling coefficients
  Masaaki Saitow         : Open-shell DLPNO-CCSD energy and density      
  Barbara Sandhoefer     : DKH picture change effects                    
  Yorick L. A. Schmerwitz: GMF and freeze-and-release deltaSCF, NEB S-IDPP initial path                    
  Kantharuban Sivalingam : CASSCF convergence/infrastructure, NEVPT2, NEVPT3, NEVPT4(SD), FIC-MRCI and CEPA variants
  Bernardo de Souza      : ESD, SOC TD-DFT                               
  Georgi L. Stoychev     : AutoAux, RI-MP2 NMR, DLPNO-MP2 response, X2C  
  Van Anh Tran           : RI-MP2 g-tensors                              
  Willem Van den Heuvel  : Paramagnetic NMR                              
  Zikuan Wang            : NOTCH, Electric field optimization            
  Frank Wennmohs         : Technical directorship and infrastructure     
  Hang Xu                : AUTO-CI-Response properties                   
                                                                         
[FACCTs GmbH]                                                            
  Markus Bursch, Nicolas Foglia, Miquel Garcia-Rates, Ingolf Harden, Hagen Neugebauer, Anastasios Papadopoulos, 
  Christoph Riplinger, Bernardo de Souza, Georgi L. Stoychev                                                    
                                                                 
  APM, various basis sets, CI-OPT, improved COSX, DLPNO-Multilevel,           
  DOCKER, DRACO, updates on ESD, Fragmentator, GOAT, IRC, LR-CPCM, L-BFGS, MBIS, meta-GGA TD-DFT gradient, ML-optimized integration grids, 
  MM, NACMEs, nearIR, NEB, NEB-TS, NL-DFT gradient (VV10), 2- and 3-layer-ONIOM, interface openCOSMO-RS, QMMM,   
  Crystal-QMMM, RESP, rigid body optimization, SF, symmetry and pop. for TD-DFT, various functionals, SOLVATOR                                   
                                                                         
[Other institutions]                                                     
  V. Asgeirsson          : NEB                                           
  Christoph Bannwarth    : sTDA-DFT, sTD-DFT, PBEh-3c, B97-3c, D3        
  Giovanni Bistoni       : ETS/NOCV, ADLD/ADEX, COVALED                  
  Martin Brehm           : Molecular dynamics                            
  Ronald Cardenas        : ETS/NOCV                                      
  Martina Colucci        : COVALED                                       
  Sebastian Ehlert       : rSCAN, r2SCAN, r2SCAN-3c, D4, dhf basis sets  
  Marvin Friede          : D4 for Fr, Ra, Ac-Lr                          
  Lars Goerigk           : TD-DFT with DH, B97 family of functionals     
  Stefan Grimme          : VdW corrections, initial TS optimization, DFT functionals, gCP, sTDA/sTD-DF 
  Waldemar Hujo          : DFT-NL                                        
  H. Jonsson             : NEB                                           
  Holger Kruse           : gCP                                           
  Marcel Mueller         : wB97X-3c, vDZP basis set                      
  Hagen Neugebauer       : wr2SCAN, Native XTB                           
  Gianluca Regni         : ADLD/ADEX                                     
  Tobias Risthaus        : pre 6.0 range-separated hybrid DFT and stability analysis
  Lukas Wittmann         : regularized MP2, r2SCAN double-hybrids, wr2SCAN        
                                                                         
We gratefully acknowledge several colleagues who have allowed us to      
interface, adapt or use parts of their codes:                            
  Ed Valeev, F. Pavosevic, A. Kumar             : LibInt (2-el integral package), F12 methods 
  Garnet Chan, S. Sharma, J. Yang, R. Olivares  : DMRG                   
  Ulf Ekstrom                                   : XCFun DFT Library      
  Mihaly Kallay                                 : mrcc  (arbitrary order and MRCC methods)
  Frank Weinhold                                : gennbo (NPA and NBO analysis)           
  Simon Mueller                                 : openCOSMO-RS                            
  Christopher J. Cramer and Donald G. Truhlar   : smd solvation model                     
  S Lehtola, MJT Oliveira, MAL Marques          : LibXC Library                           
  Liviu Ungur et al                             : ANISO software                          


 Your calculation uses the libint2 library for the computation of 2-el integrals
 For citations please refer to: http://libint.valeyev.net

 Your ORCA version has been built with support for libXC version: 7.0.0
 For citations please refer to: https://libxc.gitlab.io

 This ORCA versions uses:
   CBLAS   interface :  Fast vector & matrix operations
   LAPACKE interface :  Fast linear algebra routines
   Shared memory     :  Shared parallel matrices


  ***********************************
  * Starting time: Fri Sep  4 05:18:14 2026
  * Host name:     DESKTOP-VL9OK5A
  * Process ID:    6088
  * Working dir.:  C:\CompChem
  ***********************************

NOTE: MaxCore=800 MB was set to SCF,MP2,MDCI,CIPSI,MRCI,RASCI and CIS
      => If you want to overwrite this, your respective input block should be placed after the MaxCore statement
Your calculation utilizes the atom-pairwise dispersion correction
with the Becke-Johnson damping scheme (D3BJ)


Your calculation utilizes the SMD solvation module
Please cite in your paper:
Marenich, A. V.; Cramer, C. J.; Truhlar, D. G. J. Phys. Chem. B 2009, 113, 6378 

Warning: RI is on but no J-basis has been assigned. Assigning Def2/J (nothing to worry about!)
================================================================================

----- Orbital basis set information -----
Your calculation utilizes the basis: 6-31G*
   H-He, Li-Ne : W. J. Hehre, R. Ditchfield and J.A. Pople, J. Chem. Phys. 56, 2257 (1972).
                 Note: He and Ne are unpublished basis sets taken from the Gaussian program.
                 Note: Li and B from J. D. Dill and J. A. Pople, J. Chem. Phys. 62, 2921 (1975).
   Na - Ar     : M. M. Francl, W. J. Pietro, W. J. Hehre, J. S. Binkley, M. S. Gordon, 
                 D. J. DeFrees and J. A. Pople, J. Chem. Phys. 77, 3654 (1982).
   Sc - Zn     : V. A. Rassolov, J. A. Pople, M. A. Ratner, and T. L. Windus, J. Chem. Phys. 109, 1223 (1998).
   K,Ca,Ga-Kr  : V.A. Rassolov, M.A. Ratner, J.A. Pople, P.C. Redfern, and L.A. Curtiss, J. Comput. Chem. 22, 976 (2001).
----- AuxJ basis set information -----
Your calculation utilizes the auxiliary basis: def2/J
   H-Rn: F. Weigend, Phys. Chem. Chem. Phys. 8, 1057 (2006).
   Fr-Lr: K. Eichkorn, F. Weigend, O. Treutler, R. Ahlrichs; Theor. Chem. Acc. 97, 119 (1997).

================================================================================
                                        WARNINGS
                       Please study these warnings very carefully!
================================================================================


================================================================================
                                       INPUT FILE
================================================================================
NAME = doxorubicin_on_go_solv.inp
|  1> ! B3LYP D3BJ SMD(water) 6-31G* SP
|  2> %maxcore 800
|  3> 
|  4> * xyz 0 1
|  5>   C       -0.60306292988360   0.33251663612880   -3.68223729426634
|  6>   C       -1.48881143295596   0.89659283235758   -2.60976131541109
|  7>   C       -1.00365554556704   0.87189661745404   -1.21426568569248
|  8>   C       -1.72630313960671   1.52705072811286   -0.19214825752108
|  9>   C       -1.31483883007530   1.47152966671393   1.12160978838174
| 10>   C       -0.13141990807869   0.77328214587179   1.48251432997823
| 11>   C       0.32540598856466   0.70306848220884   2.82415408503319
| 12>   C       1.50589460434267   0.05016027270042   3.12922404440289
| 13>   C       2.28240516221834   -0.55090847385668   2.11358411119493
| 14>   C       1.86153949372688   -0.50893795423582   0.79152640120716
| 15>   C       2.65526296137724   -1.09292369879020   -0.27462108770709
| 16>   C       2.27050361075889   -1.01256645039902   -1.56912843096542
| 17>   C       1.02834058880603   -0.37094676826210   -1.96354732040912
| 18>   C       0.68868246223750   -0.23083336547217   -3.27867918834189
| 19>   C       0.18506309834849   0.19487491900800   -0.90217067842960
| 20>   C       0.63185698626814   0.14573494222996   0.44988112585141
| 21>   H       -0.68624813386052   0.71712629283256   -4.69841052374440
| 22>   H       -2.19740132283011   1.68737515034592   -2.86530150780920
| 23>   H       -2.63773255176061   2.06098776929097   -0.45293649324165
| 24>   H       -1.89615838184893   1.96107536657989   1.89952545658261
| 25>   H       -0.26065476042473   1.17853996900514   3.60965382611384
| 26>   H       3.21961310461212   -1.03174053978079   2.38039285481716
| 27>   H       3.58283758650602   -1.58698782497577   -0.00021459706902
| 28>   H       2.88621456267703   -1.44126175399224   -2.35657209397153
| 29>   H       1.38713255955194   -0.52417795015041   -4.05684140033782
| 30>   O       -1.78785673852912   -0.36215636314299   -3.22854845748921
| 31>   O       1.99603281922826   -0.04547409959703   4.40209225264528
| 32>   H       1.38420774239225   0.40246834692798   5.00757518918786
| 33>   C       8.84227285630085   -5.50845299988359   -6.38756636495780
| 34>   C       8.98324890707044   -4.27825066928059   -5.48782398527885
| 35>   C       9.64536012401062   -3.04951113313160   -6.14796598094897
| 36>   C       8.76414180191321   -2.36824347977859   -7.23465936861870
| 37>   C       7.27030088506789   -2.55427080898952   -6.89130250761496
| 38>   C       7.02351588197875   -2.80056474017495   -5.40811930233384
| 39>   O       7.70615670147521   -3.94073344962880   -4.90933046927641
| 40>   O       7.39142967225933   -1.61787266323707   -4.71407607835113
| 41>   C       6.94230349417397   -1.53817474329830   -3.35466151481496
| 42>   C       8.13727537622270   -1.79944451670994   -2.42092973532643
| 43>   C       8.00751834134722   -1.13505607638273   -1.05149764452590
| 44>   C       7.88092431665663   0.37772161861963   -1.24403174264528
| 45>   C       6.76174051062799   0.72856305259431   -2.19897482202392
| 46>   C       6.30164853449043   -0.17059178112397   -3.15102876208257
| 47>   C       5.17965785002419   0.16888424255484   -3.96714766214827
| 48>   C       4.58581866052500   1.44143346473881   -3.87408057395465
| 49>   C       5.10074723208672   2.37971595389720   -2.93452724716103
| 50>   C       6.16799065350727   2.01871041268159   -2.09429397725395
| 51>   O       6.67532491424741   2.85275740926912   -1.17399749858725
| 52>   C       4.51001100324547   3.70549273183660   -2.81934322535933
| 53>   O       4.93755731326109   4.54407494601151   -1.99773706921791
| 54>   C       3.36824203674367   4.05844877007517   -3.70552494317499
| 55>   C       2.83645421378483   3.12379041844690   -4.62805271809499
| 56>   C       3.44308876411120   1.77453689227495   -4.73857513781641
| 57>   O       3.00581040878704   0.92720227795222   -5.54677046143900
| 58>   C       1.72795867195508   3.52910327913788   -5.42779156687316
| 59>   C       1.21467637248587   4.83041987562802   -5.29424852581645
| 60>   C       1.76745608199946   5.72562584419660   -4.38169965008191
| 61>   C       2.83964336660774   5.34575318412550   -3.58246554927261
| 62>   O       1.20371954427959   2.63411900875182   -6.29226594148832
| 63>   C       0.13682042073179   3.02959979258051   -7.14686022886841
| 64>   O       4.70893431202151   -0.77854322536999   -4.79139216322299
| 65>   C       6.85175832036721   -1.74177125459285   -0.22627820542402
| 66>   O       6.32530423277993   -2.79881225178210   -0.54335912863253
| 67>   C       6.43430237229540   -1.08683524545802   1.08571092415197
| 68>   O       5.51340610289999   -1.89779493003604   1.77320450479194
| 69>   O       9.18492030227368   -1.34006874451563   -0.25524151736406
| 70>   N       9.00391810083780   -2.79173779130597   -8.61641542907574
| 71>   O       10.89769813846286   -3.38786231843562   -6.74434909255825
| 72>   H       9.81480009668485   -5.78764952724792   -6.80568315441790
| 73>   H       8.14629543938658   -5.33456119730561   -7.21431944008694
| 74>   H       8.45425428037938   -6.34916391428442   -5.80294718104444
| 75>   H       9.61375389632476   -4.56632177774278   -4.63256940162256
| 76>   H       9.79720513050016   -2.30987555431100   -5.35031633507376
| 77>   H       9.00416235570335   -1.29963821864770   -7.19854301258398
| 78>   H       6.87791778632318   -3.42018083385499   -7.43799065815481
| 79>   H       6.68774933648106   -1.68638777514248   -7.21142301169643
| 80>   H       5.96572564119305   -3.00628741355938   -5.21510067343771
| 81>   H       6.17647513591066   -2.30437823137910   -3.18468830196898
| 82>   H       9.03617392077481   -1.38677076551132   -2.89239041056245
| 83>   H       8.27067564579521   -2.88175870817701   -2.32389820216414
| 84>   H       8.84543343485798   0.73792182740997   -1.62747056722519
| 85>   H       7.73387048486398   0.89299100513903   -0.29104212305958
| 86>   H       6.14756008152178   3.69834256329298   -1.24390553505622
| 87>   H       0.37545627345505   5.14637249878571   -5.90178899891426
| 88>   H       1.34999067020226   6.72528400958059   -4.29687716696259
| 89>   H       3.28206611332635   6.02121976701279   -2.85978674729115
| 90>   H       0.42970267014490   3.86477237113466   -7.79565691671474
| 91>   H       -0.08088388454889   2.15372207731747   -7.75977392460237
| 92>   H       -0.75841601295599   3.30566443489361   -6.57504900349653
| 93>   H       3.95113271381001   -0.34966745099301   -5.28981240242162
| 94>   H       5.98680989286537   -0.10504412000606   0.86739540537148
| 95>   H       7.33511646685103   -0.90438027062917   1.68992747722844
| 96>   H       5.41350468151117   -2.70098841990550   1.22397263514998
| 97>   H       9.39415266800356   -2.28934326852395   -0.27987971708212
| 98>   H       10.00108252742637   -2.70783909498566   -8.80919764002986
| 99>   H       8.79290112827011   -3.78413474431796   -8.71582521065891
|100>   H       11.52604935482465   -3.58143666541257   -6.03139391166726
|101> *
|102> 
|103>                          ****END OF INPUT****
================================================================================

                       ****************************
                       * Single Point Calculation *
                       ****************************

---------------------------------
CARTESIAN COORDINATES (ANGSTROEM)
---------------------------------
  C     -0.603063    0.332517   -3.682237
  C     -1.488811    0.896593   -2.609761
  C     -1.003656    0.871897   -1.214266
  C     -1.726303    1.527051   -0.192148
  C     -1.314839    1.471530    1.121610
  C     -0.131420    0.773282    1.482514
  C      0.325406    0.703068    2.824154
  C      1.505895    0.050160    3.129224
  C      2.282405   -0.550908    2.113584
  C      1.861539   -0.508938    0.791526
  C      2.655263   -1.092924   -0.274621
  C      2.270504   -1.012566   -1.569128
  C      1.028341   -0.370947   -1.963547
  C      0.688682   -0.230833   -3.278679
  C      0.185063    0.194875   -0.902171
  C      0.631857    0.145735    0.449881
  H     -0.686248    0.717126   -4.698411
  H     -2.197401    1.687375   -2.865302
  H     -2.637733    2.060988   -0.452936
  H     -1.896158    1.961075    1.899525
  H     -0.260655    1.178540    3.609654
  H      3.219613   -1.031741    2.380393
  H      3.582838   -1.586988   -0.000215
  H      2.886215   -1.441262   -2.356572
  H      1.387133   -0.524178   -4.056841
  O     -1.787857   -0.362156   -3.228548
  O      1.996033   -0.045474    4.402092
  H      1.384208    0.402468    5.007575
  C      8.842273   -5.508453   -6.387566
  C      8.983249   -4.278251   -5.487824
  C      9.645360   -3.049511   -6.147966
  C      8.764142   -2.368243   -7.234659
  C      7.270301   -2.554271   -6.891303
  C      7.023516   -2.800565   -5.408119
  O      7.706157   -3.940733   -4.909330
  O      7.391430   -1.617873   -4.714076
  C      6.942303   -1.538175   -3.354662
  C      8.137275   -1.799445   -2.420930
  C      8.007518   -1.135056   -1.051498
  C      7.880924    0.377722   -1.244032
  C      6.761741    0.728563   -2.198975
  C      6.301649   -0.170592   -3.151029
  C      5.179658    0.168884   -3.967148
  C      4.585819    1.441433   -3.874081
  C      5.100747    2.379716   -2.934527
  C      6.167991    2.018710   -2.094294
  O      6.675325    2.852757   -1.173997
  C      4.510011    3.705493   -2.819343
  O      4.937557    4.544075   -1.997737
  C      3.368242    4.058449   -3.705525
  C      2.836454    3.123790   -4.628053
  C      3.443089    1.774537   -4.738575
  O      3.005810    0.927202   -5.546770
  C      1.727959    3.529103   -5.427792
  C      1.214676    4.830420   -5.294249
  C      1.767456    5.725626   -4.381700
  C      2.839643    5.345753   -3.582466
  O      1.203720    2.634119   -6.292266
  C      0.136820    3.029600   -7.146860
  O      4.708934   -0.778543   -4.791392
  C      6.851758   -1.741771   -0.226278
  O      6.325304   -2.798812   -0.543359
  C      6.434302   -1.086835    1.085711
  O      5.513406   -1.897795    1.773205
  O      9.184920   -1.340069   -0.255242
  N      9.003918   -2.791738   -8.616415
  O     10.897698   -3.387862   -6.744349
  H      9.814800   -5.787650   -6.805683
  H      8.146295   -5.334561   -7.214319
  H      8.454254   -6.349164   -5.802947
  H      9.613754   -4.566322   -4.632569
  H      9.797205   -2.309876   -5.350316
  H      9.004162   -1.299638   -7.198543
  H      6.877918   -3.420181   -7.437991
  H      6.687749   -1.686388   -7.211423
  H      5.965726   -3.006287   -5.215101
  H      6.176475   -2.304378   -3.184688
  H      9.036174   -1.386771   -2.892390
  H      8.270676   -2.881759   -2.323898
  H      8.845433    0.737922   -1.627471
  H      7.733870    0.892991   -0.291042
  H      6.147560    3.698343   -1.243906
  H      0.375456    5.146372   -5.901789
  H      1.349991    6.725284   -4.296877
  H      3.282066    6.021220   -2.859787
  H      0.429703    3.864772   -7.795657
  H     -0.080884    2.153722   -7.759774
  H     -0.758416    3.305664   -6.575049
  H      3.951133   -0.349667   -5.289812
  H      5.986810   -0.105044    0.867395
  H      7.335116   -0.904380    1.689927
  H      5.413505   -2.700988    1.223973
  H      9.394153   -2.289343   -0.279880
  H     10.001083   -2.707839   -8.809198
  H      8.792901   -3.784135   -8.715825
  H     11.526049   -3.581437   -6.031394

----------------------------
CARTESIAN COORDINATES (A.U.)
----------------------------
  NO LB      ZA    FRAG     MASS         X           Y           Z
   0 C     6.0000    0    12.011   -1.139624    0.628365   -6.958420
   1 C     6.0000    0    12.011   -2.813446    1.694315   -4.931734
   2 C     6.0000    0    12.011   -1.896634    1.647646   -2.294630
   3 C     6.0000    0    12.011   -3.262240    2.885708   -0.363108
   4 C     6.0000    0    12.011   -2.484685    2.780788    2.119535
   5 C     6.0000    0    12.011   -0.248348    1.461291    2.801546
   6 C     6.0000    0    12.011    0.614928    1.328607    5.336878
   7 C     6.0000    0    12.011    2.845728    0.094789    5.913376
   8 C     6.0000    0    12.011    4.313121   -1.041066    3.994095
   9 C     6.0000    0    12.011    3.517800   -0.961753    1.495768
  10 C     6.0000    0    12.011    5.017720   -2.065326   -0.518959
  11 C     6.0000    0    12.011    4.290630   -1.913473   -2.965223
  12 C     6.0000    0    12.011    1.943282   -0.700988   -3.710567
  13 C     6.0000    0    12.011    1.301421   -0.436212   -6.195806
  14 C     6.0000    0    12.011    0.349719    0.368260   -1.704856
  15 C     6.0000    0    12.011    1.194037    0.275399    0.850152
  16 H     1.0000    0     1.008   -1.296821    1.355172   -8.878709
  17 H     1.0000    0     1.008   -4.152487    3.188677   -5.414635
  18 H     1.0000    0     1.008   -4.984592    3.894702   -0.855926
  19 H     1.0000    0     1.008   -3.583220    3.705895    3.589583
  20 H     1.0000    0     1.008   -0.492566    2.227118    6.821257
  21 H     1.0000    0     1.008    6.084187   -1.949707    4.498291
  22 H     1.0000    0     1.008    6.770582   -2.998972   -0.000406
  23 H     1.0000    0     1.008    5.454155   -2.723590   -4.453276
  24 H     1.0000    0     1.008    2.621301   -0.990553   -7.666319
  25 O     8.0000    0    15.999   -3.378560   -0.684376   -6.101072
  26 O     8.0000    0    15.999    3.771955   -0.085934    8.318749
  27 H     1.0000    0     1.008    2.615774    0.760555    9.462946
  28 C     6.0000    0    12.011   16.709474  -10.409468  -12.070751
  29 C     6.0000    0    12.011   16.975880   -8.084722  -10.370484
  30 C     6.0000    0    12.011   18.227089   -5.762741  -11.617972
  31 C     6.0000    0    12.011   16.561828   -4.475332  -13.671525
  32 C     6.0000    0    12.011   13.738878   -4.826872  -13.022674
  33 C     6.0000    0    12.011   13.272522   -5.292300  -10.219864
  34 O     8.0000    0    15.999   14.562526   -7.446907   -9.277290
  35 O     8.0000    0    15.999   13.967778   -3.057336   -8.908313
  36 C     6.0000    0    12.011   13.119052   -2.906729   -6.339392
  37 C     6.0000    0    12.011   15.377222   -3.400457   -4.574894
  38 C     6.0000    0    12.011   15.132017   -2.144945   -1.987043
  39 C     6.0000    0    12.011   14.892789    0.713790   -2.350879
  40 C     6.0000    0    12.011   12.777838    1.376785   -4.155460
  41 C     6.0000    0    12.011   11.908390   -0.322372   -5.954581
  42 C     6.0000    0    12.011    9.788135    0.319145   -7.496823
  43 C     6.0000    0    12.011    8.665941    2.723914   -7.320951
  44 C     6.0000    0    12.011    9.639015    4.497011   -5.545453
  45 C     6.0000    0    12.011   11.655813    3.814810   -3.957642
  46 O     8.0000    0    15.999   12.614536    5.390930   -2.218534
  47 C     6.0000    0    12.011    8.522686    7.002366   -5.327787
  48 O     8.0000    0    15.999    9.330631    8.587057   -3.775176
  49 C     6.0000    0    12.011    6.365055    7.669357   -7.002427
  50 C     6.0000    0    12.011    5.360122    5.903108   -8.745752
  51 C     6.0000    0    12.011    6.506495    3.353389   -8.954609
  52 O     8.0000    0    15.999    5.680158    1.752158  -10.481877
  53 C     6.0000    0    12.011    3.265369    6.669039  -10.257040
  54 C     6.0000    0    12.011    2.295406    9.128171  -10.004680
  55 C     6.0000    0    12.011    3.340008   10.819865   -8.280212
  56 C     6.0000    0    12.011    5.366148   10.102009   -6.769879
  57 O     8.0000    0    15.999    2.274700    4.977764  -11.890659
  58 C     6.0000    0    12.011    0.258553    5.725114  -13.505609
  59 O     8.0000    0    15.999    8.898596   -1.471233   -9.054419
  60 C     6.0000    0    12.011   12.947947   -3.291471   -0.427604
  61 O     8.0000    0    15.999   11.953093   -5.288989   -1.026800
  62 C     6.0000    0    12.011   12.159069   -2.053821    2.051696
  63 O     8.0000    0    15.999   10.418828   -3.586313    3.350871
  64 O     8.0000    0    15.999   17.356984   -2.532363   -0.482337
  65 N     7.0000    0    14.007   17.014939   -5.275620  -16.282665
  66 O     8.0000    0    15.999   20.593665   -6.402132  -12.744973
  67 H     1.0000    0     1.008   18.547284  -10.937073  -12.860877
  68 H     1.0000    0     1.008   15.394267  -10.080860  -13.633088
  69 H     1.0000    0     1.008   15.976225  -11.998181  -10.965981
  70 H     1.0000    0     1.008   18.167362   -8.629098   -8.754287
  71 H     1.0000    0     1.008   18.514035   -4.365032  -10.110633
  72 H     1.0000    0     1.008   17.015401   -2.455960  -13.603275
  73 H     1.0000    0     1.008   12.997381   -6.463205  -14.055765
  74 H     1.0000    0     1.008   12.638015   -3.186811  -13.627615
  75 H     1.0000    0     1.008   11.273588   -5.681060   -9.855112
  76 H     1.0000    0     1.008   11.671846   -4.354644   -6.018189
  77 H     1.0000    0     1.008   17.075894   -2.620617   -5.465826
  78 H     1.0000    0     1.008   15.629312   -5.445735   -4.391531
  79 H     1.0000    0     1.008   16.715447    1.394470   -3.075474
  80 H     1.0000    0     1.008   14.614897    1.687508   -0.549990
  81 H     1.0000    0     1.008   11.617205    6.988855   -2.350641
  82 H     1.0000    0     1.008    0.709510    9.725235  -11.152765
  83 H     1.0000    0     1.008    2.551113   12.708945   -8.119921
  84 H     1.0000    0     1.008    6.202206   11.378456   -5.404214
  85 H     1.0000    0     1.008    0.812020    7.303361  -14.731657
  86 H     1.0000    0     1.008   -0.152848    4.069945  -14.663848
  87 H     1.0000    0     1.008   -1.433199    6.246800  -12.425042
  88 H     1.0000    0     1.008    7.466559   -0.660776   -9.996297
  89 H     1.0000    0     1.008   11.313431   -0.198505    1.639140
  90 H     1.0000    0     1.008   13.861361   -1.709031    3.193500
  91 H     1.0000    0     1.008   10.230041   -5.104128    2.312973
  92 H     1.0000    0     1.008   17.752376   -4.326232   -0.528896
  93 H     1.0000    0     1.008   18.899307   -5.117074  -16.646971
  94 H     1.0000    0     1.008   16.616175   -7.150978  -16.470523
  95 H     1.0000    0     1.008   21.781077   -6.767934  -11.397683

--------------------------------
INTERNAL COORDINATES (ANGSTROEM)
--------------------------------
 C      0   0   0     0.000000000000     0.00000000     0.00000000
 C      1   0   0     1.500978711064     0.00000000     0.00000000
 C      2   1   0     1.477631276964   118.34407616     0.00000000
 C      3   2   1     1.412858977696   120.50012137   172.61701964
 C      4   3   2     1.377804655766   121.22348596   177.53692110
 C      5   4   3     1.420662533273   120.71732752     1.30686506
 C      6   5   4     1.419019764046   122.18642611   179.60696556
 C      7   6   5     1.383079962307   120.44279069   182.11304375
 C      8   7   6     1.412719631953   120.75838194     0.39365516
 C      9   8   7     1.388065569046   120.34564998   359.19686786
 C     10   9   8     1.451794324641   121.43385591   178.62282398
 C     11  10   9     1.352865960473   121.55424842   182.34608320
 C     12  11  10     1.452656549210   121.95350336   358.34595779
 C     13  12  11     1.365493038663   121.30030316   176.28426636
 C      3   2   1     1.403144215011   119.75447179   352.74017991
 C     15   3   2     1.424810021392   119.56224097   181.53613682
 H      1   2   3     1.089702894599   119.24967754   207.73499209
 H      2   1   3     1.092125036983   119.19624086   151.89431399
 H      4   3   2     1.088027040644   118.85664875   359.15881280
 H      5   4   3     1.087538597184   120.28354812   181.50937879
 H      7   6   5     1.089288841171   119.14268001     1.51556039
 H      9   8   7     1.086620959019   119.06644888   178.24316127
 H     11  10   9     1.086182750770   117.66678358     1.41287598
 H     12  11  10     1.087633744439   120.55419303   178.95500705
 H     14  13  12     1.086011055182   120.15984135   354.77243268
 O      2   1   3     1.434146142888    58.99679680   253.30362058
 O      8   7   6     1.367323984435   122.97760507   179.80632224
 H     27   8   7     0.970356607897   108.81838175     0.39017511
 C     24  12  11     8.262299307119   162.81091355     6.05477178
 C     29  24  12     1.530623523569    51.97286496   295.90938698
 C     30  29  24     1.544014108012   115.32697065   236.83486660
 C     31  30  29     1.556140695924   113.83671033    69.93426995
 C     32  31  30     1.544040409462   109.86695879    30.24297245
 C     33  32  31     1.523612798160   113.11999929    23.65366328
 O     34  33  32     1.419427164191   113.20533123   301.77313592
 O     34  33  32     1.419794739632   107.41158900    65.79040936
 C     36  34  33     1.433901683463   115.37710151   165.97285495
 C     37  36  34     1.538855005974   108.81953057   104.77879308
 C     38  37  36     1.527610270669   113.83727730   152.83469426
 C     39  38  37     1.530226055367   108.91684844   300.52172244
 C     40  39  38     1.512474260384   111.71423164    53.54554011
 C     41  40  39     1.388009634796   121.87615597   336.24098699
 C     42  41  40     1.428340689656   119.88964699   175.51654864
 C     43  42  41     1.407369172879   120.56860565     4.00236253
 C     44  43  42     1.424179032692   119.12889715   358.71419644
 C     45  44  43     1.405462724234   119.98207528   358.53105367
 O     46  45  44     1.341628880609   122.51729885   181.31818324
 C     45  44  43     1.455994751319   120.35764245   179.76891186
 O     48  45  44     1.249420927049   121.62339238   179.55583344
 C     48  45  44     1.487794466580   118.70244388   359.65228525
 C     50  48  45     1.416842270126   121.28988564     1.35777962
 C     44  43  42     1.471101750574   119.58037513   179.13652635
 O     52  44  43     1.249947194801   119.88211751     0.12713616
 C     51  50  48     1.425700917985   118.00344568   178.99919554
 C     54  51  50     1.405246365255   119.60061351     0.90912352
 C     55  54  51     1.392732775523   120.83214763   359.41391604
 C     56  55  54     1.390202848163   120.47503865   359.91242635
 O     54  51  50     1.350236813152   118.20154061   181.09336741
 C     58  54  51     1.423028526147   119.43084551   182.86579544
 O     43  42  41     1.341110902856   117.32113327   185.42369985
 C     39  38  37     1.544302967762   111.82260572    66.36338575
 O     61  39  38     1.222714148090   121.55385269    14.34467632
 C     61  39  38     1.524639669157   119.73468883   188.55793611
 O     63  61  39     1.406539360423   110.62222755   188.85069775
 O     39  38  37     1.436081262231   111.42743153   183.71354855
 N     32  31  30     1.464953895531   116.06694834   265.40557204
 O     31  30  29     1.427762180075   111.47744949   307.48324843
 H     29  24  12     1.094797508131   162.21807743   289.27718446
 H     29  24  12     1.094597447053    80.32508651   167.87885531
 H     29  24  12     1.095049244122    82.06944428    58.55436379
 H     30  29  24     1.100900498624   107.40378477   117.48531199
 H     31  30  29     1.098345416077   106.54035858   187.49223689
 H     32  31  30     1.095824557825   106.25237445   147.76204426
 H     33  32  31     1.096646069287   109.29580523   264.00150820
 H     33  32  31     1.093190012914   110.78105660   146.50177470
 H     34  33  32     1.094759426973   111.00894251   184.50864083
 H     37  36  34     1.096563610810   109.07867738   345.67648838
 H     38  37  36     1.095715924234   108.18135117    34.10622139
 H     38  37  36     1.094812659500   108.43565649   277.10726320
 H     40  39  38     1.098657071930   107.18160266   292.14063189
 H     40  39  38     1.093305348550   111.55386204   177.08525727
 H     47  46  45     0.999218246896   106.16255308     0.00000000
 H     55  54  51     1.083153664606   119.98824476   179.73208043
 H     56  55  54     1.086641003878   119.33936309   180.13680678
 H     57  56  55     1.083631691233   121.86788146   180.48570202
 H     59  58  54     1.097374316334   111.49804276    59.63588904
 H     59  58  54     1.090972105533   105.30036231   178.17917092
 H     59  58  54     1.097555482151   111.62692168   296.77167903
 H     60  43  42     1.003304752776   105.57185465   181.51018622
 H     63  61  39     1.100829232398   108.89056699    67.62692626
 H     63  61  39     1.099924312760   108.64617283   311.31058267
 H     64  63  61     0.978138907719   105.41785472     2.16332963
 H     65  39  38     0.972372020209   107.56189482   310.45168445
 H     66  32  31     1.019088252193   108.34766468   307.94505321
 H     66  32  31     1.019442092389   109.84707734    62.50682465
 H     67  31  30     0.969846054212   107.97002730   290.38091580

---------------------------
INTERNAL COORDINATES (A.U.)
---------------------------
 C      0   0   0     0.000000000000     0.00000000     0.00000000
 C      1   0   0     2.836438696758     0.00000000     0.00000000
 C      2   1   0     2.792318440378   118.34407616     0.00000000
 C      3   2   1     2.669916533697   120.50012137   172.61701964
 C      4   3   2     2.603673465440   121.22348596   177.53692110
 C      5   4   3     2.684663116610   120.71732752     1.30686506
 C      6   5   4     2.681558732668   122.18642611   179.60696556
 C      7   6   5     2.613642350074   120.44279069   182.11304375
 C      8   7   6     2.669653208406   120.75838194     0.39365516
 C      9   8   7     2.623063781422   120.34564998   359.19686786
 C     10   9   8     2.743493676353   121.43385591   178.62282398
 C     11  10   9     2.556546161199   121.55424842   182.34608320
 C     12  11  10     2.745123044654   121.95350336   358.34595779
 C     13  12  11     2.580407880849   121.30030316   176.28426636
 C      3   2   1     2.651558292766   119.75447179   352.74017991
 C     15   3   2     2.692500733298   119.56224097   181.53613682
 H      1   2   3     2.059240038134   119.24967754   207.73499209
 H      2   1   3     2.063817223897   119.19624086   151.89431399
 H      4   3   2     2.056073133117   118.85664875   359.15881280
 H      5   4   3     2.055150108746   120.28354812   181.50937879
 H      7   6   5     2.058457590550   119.14268001     1.51556039
 H      9   8   7     2.053416023925   119.06644888   178.24316127
 H     11  10   9     2.052587930345   117.66678358     1.41287598
 H     12  11  10     2.055329911002   120.55419303   178.95500705
 H     14  13  12     2.052263472704   120.15984135   354.77243268
 O      2   1   3     2.710143446077    58.99679680   253.30362058
 O      8   7   6     2.583867866923   122.97760507   179.80632224
 H     27   8   7     1.833708241165   108.81838175     0.39017511
 C     24  12  11    15.613482926943   162.81091355     6.05477178
 C     29  24  12     2.892459273682    51.97286496   295.90938698
 C     30  29  24     2.917763811054   115.32697065   236.83486660
 C     31  30  29     2.940679741146   113.83671033    69.93426995
 C     32  31  30     2.917813513592   109.86695879    30.24297245
 C     33  32  31     2.879210922660   113.11999929    23.65366328
 O     34  33  32     2.682328607369   113.20533123   301.77313592
 O     34  33  32     2.683023224286   107.41158900    65.79040936
 C     36  34  33     2.709681484714   115.37710151   165.97285495
 C     37  36  34     2.908014521105   108.81953057   104.77879308
 C     38  37  36     2.886765050930   113.83727730   152.83469426
 C     39  38  37     2.891708167633   108.91684844   300.52172244
 C     40  39  38     2.858162136730   111.71423164    53.54554011
 C     41  40  39     2.622958081008   121.87615597   336.24098699
 C     42  41  40     2.699172729386   119.88964699   175.51654864
 C     43  42  41     2.659542306065   120.56860565     4.00236253
 C     44  43  42     2.691308337462   119.12889715   358.71419644
 C     45  44  43     2.655939640238   119.98207528   358.53105367
 O     46  45  44     2.535311157710   122.51729885   181.31818324
 C     45  44  43     2.751431332419   120.35764245   179.76891186
 O     48  45  44     2.361063378113   121.62339238   179.55583344
 C     48  45  44     2.811524085400   118.70244388   359.65228525
 C     50  48  45     2.677443865501   121.28988564     1.35777962
 C     44  43  42     2.779979423716   119.58037513   179.13652635
 O     52  44  43     2.362057880036   119.88211751     0.12713616
 C     51  50  48     2.694184283872   118.00344568   178.99919554
 C     54  51  50     2.655530781021   119.60061351     0.90912352
 C     55  54  51     2.631883523474   120.83214763   359.41391604
 C     56  55  54     2.627102653626   120.47503865   359.91242635
 O     54  51  50     2.551577792796   118.20154061   181.09336741
 C     58  54  51     2.689134195175   119.43084551   182.86579544
 O     43  42  41     2.534332321614   117.32113327   185.42369985
 C     39  38  37     2.918309676872   111.82260572    66.36338575
 O     61  39  38     2.310594879961   121.55385269    14.34467632
 C     61  39  38     2.881151427619   119.73468883   188.55793611
 O     63  61  39     2.657974187780   110.62222755   188.85069775
 O     39  38  37     2.713800291673   111.42743153   183.71354855
 N     32  31  30     2.768361661375   116.06694834   265.40557204
 O     31  30  29     2.698079504711   111.47744949   307.48324843
 H     29  24  12     2.068867462467   162.21807743   289.27718446
 H     29  24  12     2.068489401819    80.32508651   167.87885531
 H     29  24  12     2.069343174548    82.06944428    58.55436379
 H     30  29  24     2.080400443096   107.40378477   117.48531199
 H     31  30  29     2.075572036834   106.54035858   187.49223689
 H     32  31  30     2.070808305114   106.25237445   147.76204426
 H     33  32  31     2.072360736795   109.29580523   264.00150820
 H     33  32  31     2.065829736744   110.78105660   146.50177470
 H     34  33  32     2.068795499508   111.00894251   184.50864083
 H     37  36  34     2.072204912855   109.07867738   345.67648838
 H     38  37  36     2.070603017379   108.18135117    34.10622139
 H     38  37  36     2.068896094404   108.43565649   277.10726320
 H     40  39  38     2.076160981043   107.18160266   292.14063189
 H     40  39  38     2.066047689510   111.55386204   177.08525727
 H     47  46  45     1.888248834651   106.16255308     0.00000000
 H     55  54  51     2.046863787059   119.98824476   179.73208043
 H     56  55  54     2.053453903218   119.33936309   180.13680678
 H     57  56  55     2.047767126469   121.86788146   180.48570202
 H     59  58  54     2.073736924271   111.49804276    59.63588904
 H     59  58  54     2.061638499204   105.30036231   178.17917092
 H     59  58  54     2.074079278048   111.62692168   296.77167903
 H     60  43  42     1.895971211608   105.57185465   181.51018622
 H     63  61  39     2.080265769448   108.89056699    67.62692626
 H     63  61  39     2.078555719159   108.64617283   311.31058267
 H     64  63  61     1.848414656523   105.41785472     2.16332963
 H     65  39  38     1.837516818483   107.56189482   310.45168445
 H     66  32  31     1.925797702942   108.34766468   307.94505321
 H     66  32  31     1.926466364006   109.84707734    62.50682465
 H     67  31  30     1.832743434524   107.97002730   290.38091580

---------------------
BASIS SET INFORMATION
---------------------
There are 4 groups of distinct atoms

 Group   1 Type C   : 10s4p1d contracted to 3s2p1d pattern {631/31/1}
 Group   2 Type H   : 4s contracted to 2s pattern {31}
 Group   3 Type O   : 10s4p1d contracted to 3s2p1d pattern {631/31/1}
 Group   4 Type N   : 10s4p1d contracted to 3s2p1d pattern {631/31/1}

Atom   0C    basis set group =>   1
Atom   1C    basis set group =>   1
Atom   2C    basis set group =>   1
Atom   3C    basis set group =>   1
Atom   4C    basis set group =>   1
Atom   5C    basis set group =>   1
Atom   6C    basis set group =>   1
Atom   7C    basis set group =>   1
Atom   8C    basis set group =>   1
Atom   9C    basis set group =>   1
Atom  10C    basis set group =>   1
Atom  11C    basis set group =>   1
Atom  12C    basis set group =>   1
Atom  13C    basis set group =>   1
Atom  14C    basis set group =>   1
Atom  15C    basis set group =>   1
Atom  16H    basis set group =>   2
Atom  17H    basis set group =>   2
Atom  18H    basis set group =>   2
Atom  19H    basis set group =>   2
Atom  20H    basis set group =>   2
Atom  21H    basis set group =>   2
Atom  22H    basis set group =>   2
Atom  23H    basis set group =>   2
Atom  24H    basis set group =>   2
Atom  25O    basis set group =>   3
Atom  26O    basis set group =>   3
Atom  27H    basis set group =>   2
Atom  28C    basis set group =>   1
Atom  29C    basis set group =>   1
Atom  30C    basis set group =>   1
Atom  31C    basis set group =>   1
Atom  32C    basis set group =>   1
Atom  33C    basis set group =>   1
Atom  34O    basis set group =>   3
Atom  35O    basis set group =>   3
Atom  36C    basis set group =>   1
Atom  37C    basis set group =>   1
Atom  38C    basis set group =>   1
Atom  39C    basis set group =>   1
Atom  40C    basis set group =>   1
Atom  41C    basis set group =>   1
Atom  42C    basis set group =>   1
Atom  43C    basis set group =>   1
Atom  44C    basis set group =>   1
Atom  45C    basis set group =>   1
Atom  46O    basis set group =>   3
Atom  47C    basis set group =>   1
Atom  48O    basis set group =>   3
Atom  49C    basis set group =>   1
Atom  50C    basis set group =>   1
Atom  51C    basis set group =>   1
Atom  52O    basis set group =>   3
Atom  53C    basis set group =>   1
Atom  54C    basis set group =>   1
Atom  55C    basis set group =>   1
Atom  56C    basis set group =>   1
Atom  57O    basis set group =>   3
Atom  58C    basis set group =>   1
Atom  59O    basis set group =>   3
Atom  60C    basis set group =>   1
Atom  61O    basis set group =>   3
Atom  62C    basis set group =>   1
Atom  63O    basis set group =>   3
Atom  64O    basis set group =>   3
Atom  65N    basis set group =>   4
Atom  66O    basis set group =>   3
Atom  67H    basis set group =>   2
Atom  68H    basis set group =>   2
Atom  69H    basis set group =>   2
Atom  70H    basis set group =>   2
Atom  71H    basis set group =>   2
Atom  72H    basis set group =>   2
Atom  73H    basis set group =>   2
Atom  74H    basis set group =>   2
Atom  75H    basis set group =>   2
Atom  76H    basis set group =>   2
Atom  77H    basis set group =>   2
Atom  78H    basis set group =>   2
Atom  79H    basis set group =>   2
Atom  80H    basis set group =>   2
Atom  81H    basis set group =>   2
Atom  82H    basis set group =>   2
Atom  83H    basis set group =>   2
Atom  84H    basis set group =>   2
Atom  85H    basis set group =>   2
Atom  86H    basis set group =>   2
Atom  87H    basis set group =>   2
Atom  88H    basis set group =>   2
Atom  89H    basis set group =>   2
Atom  90H    basis set group =>   2
Atom  91H    basis set group =>   2
Atom  92H    basis set group =>   2
Atom  93H    basis set group =>   2
Atom  94H    basis set group =>   2
Atom  95H    basis set group =>   2
---------------------------------
AUXILIARY/J BASIS SET INFORMATION
---------------------------------
There are 4 groups of distinct atoms

 Group   1 Type C   : 12s5p4d2f1g contracted to 6s4p3d1f1g pattern {711111/2111/211/2/1}
 Group   2 Type H   : 5s2p1d contracted to 3s1p1d pattern {311/2/1}
 Group   3 Type O   : 12s5p4d2f1g contracted to 6s4p3d1f1g pattern {711111/2111/211/2/1}
 Group   4 Type N   : 12s5p4d2f1g contracted to 6s4p3d1f1g pattern {711111/2111/211/2/1}

Atom   0C    basis set group =>   1
Atom   1C    basis set group =>   1
Atom   2C    basis set group =>   1
Atom   3C    basis set group =>   1
Atom   4C    basis set group =>   1
Atom   5C    basis set group =>   1
Atom   6C    basis set group =>   1
Atom   7C    basis set group =>   1
Atom   8C    basis set group =>   1
Atom   9C    basis set group =>   1
Atom  10C    basis set group =>   1
Atom  11C    basis set group =>   1
Atom  12C    basis set group =>   1
Atom  13C    basis set group =>   1
Atom  14C    basis set group =>   1
Atom  15C    basis set group =>   1
Atom  16H    basis set group =>   2
Atom  17H    basis set group =>   2
Atom  18H    basis set group =>   2
Atom  19H    basis set group =>   2
Atom  20H    basis set group =>   2
Atom  21H    basis set group =>   2
Atom  22H    basis set group =>   2
Atom  23H    basis set group =>   2
Atom  24H    basis set group =>   2
Atom  25O    basis set group =>   3
Atom  26O    basis set group =>   3
Atom  27H    basis set group =>   2
Atom  28C    basis set group =>   1
Atom  29C    basis set group =>   1
Atom  30C    basis set group =>   1
Atom  31C    basis set group =>   1
Atom  32C    basis set group =>   1
Atom  33C    basis set group =>   1
Atom  34O    basis set group =>   3
Atom  35O    basis set group =>   3
Atom  36C    basis set group =>   1
Atom  37C    basis set group =>   1
Atom  38C    basis set group =>   1
Atom  39C    basis set group =>   1
Atom  40C    basis set group =>   1
Atom  41C    basis set group =>   1
Atom  42C    basis set group =>   1
Atom  43C    basis set group =>   1
Atom  44C    basis set group =>   1
Atom  45C    basis set group =>   1
Atom  46O    basis set group =>   3
Atom  47C    basis set group =>   1
Atom  48O    basis set group =>   3
Atom  49C    basis set group =>   1
Atom  50C    basis set group =>   1
Atom  51C    basis set group =>   1
Atom  52O    basis set group =>   3
Atom  53C    basis set group =>   1
Atom  54C    basis set group =>   1
Atom  55C    basis set group =>   1
Atom  56C    basis set group =>   1
Atom  57O    basis set group =>   3
Atom  58C    basis set group =>   1
Atom  59O    basis set group =>   3
Atom  60C    basis set group =>   1
Atom  61O    basis set group =>   3
Atom  62C    basis set group =>   1
Atom  63O    basis set group =>   3
Atom  64O    basis set group =>   3
Atom  65N    basis set group =>   4
Atom  66O    basis set group =>   3
Atom  67H    basis set group =>   2
Atom  68H    basis set group =>   2
Atom  69H    basis set group =>   2
Atom  70H    basis set group =>   2
Atom  71H    basis set group =>   2
Atom  72H    basis set group =>   2
Atom  73H    basis set group =>   2
Atom  74H    basis set group =>   2
Atom  75H    basis set group =>   2
Atom  76H    basis set group =>   2
Atom  77H    basis set group =>   2
Atom  78H    basis set group =>   2
Atom  79H    basis set group =>   2
Atom  80H    basis set group =>   2
Atom  81H    basis set group =>   2
Atom  82H    basis set group =>   2
Atom  83H    basis set group =>   2
Atom  84H    basis set group =>   2
Atom  85H    basis set group =>   2
Atom  86H    basis set group =>   2
Atom  87H    basis set group =>   2
Atom  88H    basis set group =>   2
Atom  89H    basis set group =>   2
Atom  90H    basis set group =>   2
Atom  91H    basis set group =>   2
Atom  92H    basis set group =>   2
Atom  93H    basis set group =>   2
Atom  94H    basis set group =>   2
Atom  95H    basis set group =>   2
------------------------------------------------------------------------------
                             ORCA STARTUP CALCULATIONS
                           -- RI-GTO INTEGRALS CHOSEN --
------------------------------------------------------------------------------
------------------------------------------------------------------------------
                   ___                                                        
                  /   \      - P O W E R E D   B Y -                         
                 /     \                                                     
                 |  |  |   _    _      __       _____    __    __             
                 |  |  |  | |  | |    /  \     |  _  \  |  |  /  |          
                  \  \/   | |  | |   /    \    | | | |  |  | /  /          
                 / \  \   | |__| |  /  /\  \   | |_| |  |  |/  /          
                |  |  |   |  __  | /  /__\  \  |    /   |      \           
                |  |  |   | |  | | |   __   |  |    \   |  |\   \          
                \     /   | |  | | |  |  |  |  | |\  \  |  | \   \       
                 \___/    |_|  |_| |__|  |__|  |_| \__\ |__|  \__/        
                                                                              
                      - O R C A' S   B I G   F R I E N D -                    
                                      &                                       
                       - I N T E G R A L  F E E D E R -                       
                                                                              
 v1 FN, 2020, v2 2021, v3 2022-2024                                           
------------------------------------------------------------------------------


----------------------
SHARK INTEGRAL PACKAGE
----------------------

Number of atoms                             ...     96
Number of basis functions                   ...    876
Number of shells                            ...    420
Maximum angular momentum                    ...      2
Integral batch strategy                     ... SHARK/LIBINT Hybrid
RI-J (if used) integral strategy            ... SPLIT-RIJ (Revised 2003 algorithm where possible)
Printlevel                                  ...      1
Contraction scheme used                     ... SEGMENTED contraction
Prescreening option                         ... SCHWARTZ
   Thresh                                   ... 1.000e-10
   Tcut                                     ... 1.000e-11
   Tpresel                                  ... 1.000e-11 
Coulomb Range Separation                    ... NOT USED
Exchange Range Separation                   ... NOT USED
Multipole approximations                    ... NOT USED
Finite Nucleus Model                        ... NOT USED
CABS basis                                  ... NOT available
Auxiliary Coulomb fitting basis             ... AVAILABLE
   # of basis functions in Aux-J            ...   3222
   # of shells in Aux-J                     ...   1050
   Maximum angular momentum in Aux-J        ...      4
Auxiliary J/K fitting basis                 ... NOT available
Auxiliary Correlation fitting basis         ... NOT available
Auxiliary 'external' fitting basis          ... NOT available

Checking pre-screening integrals            ... done (  0.0 sec) Dimension = 420
   => SHARK Basis and OBASIS are compatible. Storing Pre-screening
Shell pair information
Shell pair cut-off parameter TPreSel        ...   1.0e-11
Total number of shell pairs                 ...     88410
Shell pairs after pre-screening             ...     38134
Total number of primitive shell pairs       ...    512880
Primitive shell pairs kept                  ...    105885
          la=0 lb=0:  12245 shell pairs
          la=1 lb=0:  13737 shell pairs
          la=1 lb=1:   3883 shell pairs
          la=2 lb=0:   4877 shell pairs
          la=2 lb=1:   2920 shell pairs
          la=2 lb=2:    472 shell pairs

Checking whether 4 symmetric matrices of dimension 876 fit in memory
:Max Core in MB      =    800.00
 MB in use           =     43.04
 MB left             =    756.96
 MB needed           =     11.72
 Data fit in memory  = YES
Calculating RI/J V-Matrix + Cholesky decomp.... done (  1.4 sec)
Calculating Nuclear repulsion               ... done (  0.0 sec) ENN=   8266.999661422149 Eh

Diagonalization of the overlap matrix:
Smallest eigenvalue                        ... 1.808e-04
Time for diagonalization                   ...    0.158 sec
Threshold for overlap eigenvalues          ... 1.000e-07
Number of eigenvalues below threshold      ... 0
Time for construction of square roots      ...    0.114 sec
Total time needed                          ...    0.277 sec

-------------------
DFT GRID GENERATION
-------------------

General Integration Accuracy     IntAcc      ... 4.388
Radial Grid Type                 RadialGrid  ... OptM3 with GC (2021)
Angular Grid (max. ang.)         AngularGrid ... 4 (Lebedev-302)
Angular grid pruning method      GridPruning ... 4 (adaptive)
Weight generation scheme         WeightScheme... mBecke (2022)
Basis function cutoff            BFCut       ... 1.0000e-10
Integration weight cutoff        WCut        ... 1.0000e-14
Partially contracted basis set               ... off
Rotationally invariant grid construction     ... off
Angular grids for H and He will be reduced by one unit

Total number of grid points                  ...   461288
Total number of batches                      ...     7259
Average number of points per batch           ...       63
Average number of grid points per atom       ...     4805

--------------------
COSX GRID GENERATION
--------------------

GRIDX 1
-------
General Integration Accuracy     IntAcc      ... 3.816
Radial Grid Type                 RadialGrid  ... OptM3 with GC (2021)
Angular Grid (max. ang.)         AngularGrid ... 1 (Lebedev-50)
Angular grid pruning method      GridPruning ... 4 (adaptive)
Weight generation scheme         WeightScheme... mBecke (2022)
Basis function cutoff            BFCut       ... 1.0000e-10
Integration weight cutoff        WCut        ... 1.0000e-14
Partially contracted basis set               ... on
Rotationally invariant grid construction     ... off
Angular grids for H and He will be reduced by one unit

Total number of grid points                  ...    58391
Total number of batches                      ...      508
Average number of points per batch           ...      114
Average number of grid points per atom       ...      608
UseSFitting                                  ... on

GRIDX 2
-------
General Integration Accuracy     IntAcc      ... 4.020
Radial Grid Type                 RadialGrid  ... OptM3 with GC (2021)
Angular Grid (max. ang.)         AngularGrid ... 2 (Lebedev-110)
Angular grid pruning method      GridPruning ... 4 (adaptive)
Weight generation scheme         WeightScheme... mBecke (2022)
Basis function cutoff            BFCut       ... 1.0000e-10
Integration weight cutoff        WCut        ... 1.0000e-14
Partially contracted basis set               ... on
Rotationally invariant grid construction     ... off
Angular grids for H and He will be reduced by one unit

Total number of grid points                  ...   125981
Total number of batches                      ...     1033
Average number of points per batch           ...      121
Average number of grid points per atom       ...     1312
UseSFitting                                  ... on

GRIDX 3
-------
General Integration Accuracy     IntAcc      ... 4.338
Radial Grid Type                 RadialGrid  ... OptM3 with GC (2021)
Angular Grid (max. ang.)         AngularGrid ... 3 (Lebedev-194)
Angular grid pruning method      GridPruning ... 4 (adaptive)
Weight generation scheme         WeightScheme... mBecke (2022)
Basis function cutoff            BFCut       ... 1.0000e-10
Integration weight cutoff        WCut        ... 1.0000e-14
Partially contracted basis set               ... on
Rotationally invariant grid construction     ... off
Angular grids for H and He will be reduced by one unit

Total number of grid points                  ...   274228
Total number of batches                      ...     2192
Average number of points per batch           ...      125
Average number of grid points per atom       ...     2857
UseSFitting                                  ... on
Grids setup in  27.2 sec
Initializing property integral containers    ... done (  0.0 sec)

SHARK setup successfully completed in  30.8 seconds

Maximum memory used throughout the entire STARTUP-calculation: 206.9 MB
-------------------------------------------------------------------------------
                                 ORCA GUESS
                   Start orbitals & Density for SCF / CASSCF
-------------------------------------------------------------------------------

------------
SCF SETTINGS
------------
Hamiltonian:
 Density Functional     Method          .... DFT(GTOs)
 Exchange Functional    Exchange        .... B88
   X-Alpha parameter    XAlpha          ....  0.666667
   Becke's b parameter  XBeta           ....  0.004200
 Correlation Functional Correlation     .... LYP
 LDA part of GGA corr.  LDAOpt          .... VWN-5
 Gradients option       PostSCFGGA      .... off
 Hybrid DFT is turned on
   Fraction HF Exchange ScalHFX         ....  0.200000
   Scaling of DF-GGA-X  ScalDFX         ....  0.720000
   Scaling of DF-GGA-C  ScalDFC         ....  0.810000
   Scaling of DF-LDA-C  ScalLDAC        ....  1.000000
   Perturbative correction              ....  0.000000
   NL short-range parameter             ....  4.800000
 RI-approximation to the Coulomb term is turned on
   Number of AuxJ basis functions       .... 3222
   RIJ-COSX (HFX calculated with COS-X)).... on


General Settings:
 Integral files         IntName         .... doxorubicin_on_go_solv
 Hartree-Fock type      HFTyp           .... RHF
 Total Charge           Charge          ....    0
 Multiplicity           Mult            ....    1
 Number of Electrons    NEL             ....  408
 Basis Dimension        Dim             ....  876
 Nuclear Repulsion      ENuc            ....   8266.9996614221 Eh

Convergence Acceleration:
 AO-DIIS                CNVDIIS         .... on
   Start iteration      DIISMaxIt       ....    12
   Startup error        DIISStart       ....  0.200000
   # of expansion vecs  DIISMaxEq       ....     5
   Bias factor          DIISBfac        ....   1.050
   Max. coefficient     DIISMaxC        ....  10.000
 MO-DIIS                CNVKDIIS        .... off
 Trust-Rad. Augm. Hess. CNVTRAH         .... auto
   Auto Start mean grad. ratio tolernc. ....  1.125000
   Auto Start start iteration           ....    50
   Auto Start num. interpolation iter.  ....    10
   Max. Number of Micro iterations      ....    24
   Max. Number of Macro iterations      .... Maxiter - #DIIS iter
   Number of Davidson start vectors     ....     2
   Converg. threshold    (grad. norm)   ....   5.000e-05
   Grad. Scal. Fac. for Micro threshold ....   0.100
   Minimum threshold for Micro iter.    ....   1.000e-02
   NR start threshold (gradient norm)   ....   1.000e-04
   Initial trust radius                 ....   0.400
   Minimum AH scaling param. (alpha)    ....   1.000
   Maximum AH scaling param. (alpha)    .... 1000.000
   Quad. conv. algorithm                .... NR
   White noise on init. David. guess    .... on
   Maximum white noise                  ....   0.010
   Pseudo random numbers                .... off
   Inactive MOs                         .... canonical
   Orbital update algorithm             .... Taylor
   Preconditioner                       .... Diag
   Full preconditioner red. dimension   ....   250
 SOSCF                 CNVSOSCF           .... on
   Start iteration     SOSCFMaxIt         ....   150
   Startup grad/error  SOSCFStart         ....  0.003300
   Hessian update      SOSCFHessUp        .... L-BFGS
   Autom. constraints  SOSCFAutoConstrain .... off
 Level Shifting         CNVShift        .... on
   Level shift para.    LevelShift      ....    0.2500
   Turn off err/grad.   ShiftErr        ....    0.0010
 Zerner damping         CNVZerner       .... off
 Static damping         CNVDamp         .... on
   Fraction old density DampFac         ....    0.7000
   Max. Damping (<1)    DampMax         ....    0.9800
   Min. Damping (>=0)   DampMin         ....    0.0000
   Turn off err/grad.   DampErr         ....    0.1000

SCF Procedure:
 Maximum # iterations   MaxIter         ....   125
 SCF integral mode      SCFMode         .... Direct
   Integral package                     .... SHARK and LIBINT hybrid scheme
 Reset frequency        DirectResetFreq ....    20
 Integral Threshold     Thresh          ....  1.000e-10 Eh
 Primitive CutOff       TCut            ....  1.000e-11 Eh

Convergence Tolerance:
 Convergence Check Mode ConvCheckMode   .... Total+1el-Energy
 Convergence forced     ConvForced      .... 0
 Energy Change          TolE            ....  1.000e-06 Eh
 1-El. energy change                    ....  1.000e-03 Eh
 Orbital Gradient       TolG            ....  5.000e-05
 Orbital Rotation angle TolX            ....  5.000e-05
 DIIS Error             TolErr          ....  1.000e-06

------------------------------
INITIAL GUESS: MODEL POTENTIAL
------------------------------
Loading Hartree-Fock densities                     ... done
Calculating cut-offs                               ... done
Initializing the effective Hamiltonian             ... done
Setting up the integral package (SHARK)            ... done
Starting the Coulomb interaction                   ... done (   9.1 sec)
Making the grid                                    ... done (   4.2 sec)
Mapping shells                                     ... done
Starting the XC term evaluation                    ... done (   3.7 sec)
  promolecular density results
     # of electrons  =    407.970232378
     EX              =   -346.014217829
     EC              =    -14.144634119
     EX+EC           =   -360.158851947
Transforming the Hamiltonian                       ... done (   0.1 sec)
Diagonalizing the Hamiltonian                      ... done (   0.2 sec)
Back transforming the eigenvectors                 ... done (   0.0 sec)
Now organizing SCF variables                       ... done
                      ------------------
                      INITIAL GUESS DONE (  17.4 sec)
                      ------------------
             **** ENERGY FILE WAS UPDATED (doxorubicin_on_go_solv.en.tmp) ****
Finished Guess after  17.7 sec
Maximum memory used throughout the entire GUESS-calculation: 84.8 MB

-------------------------------------------------------------------------------------------
                                      ORCA LEAN-SCF
                              memory conserving SCF solver
-------------------------------------------------------------------------------------------

--------------------
CPCM SOLVATION MODEL
--------------------
CPCM parameters:
  Epsilon                                         ...      78.3550
  Refrac                                          ...       1.3328
  Rsolv                                           ...       1.3000
  Surface type                                    ... GAUSSIAN VDW
  Discretization scheme                           ... Constant charge density
    Threshold for H atoms                         ...       5.0000 (charges/Ang^2)
    Threshold for non-H atoms                     ...       5.0000 (charges/Ang^2)
  Epsilon function type                           ...         CPCM
Solvent:                                          ... WATER
SMD-CDS solvent descriptors:
  Soln                                            ...       1.3328
  Soln25                                          ...       1.3323
  Sola                                            ...       0.0000
  Solb                                            ...       0.0000
  Solg                                            ...       0.0000
  Solc                                            ...       0.0000
  Solh                                            ...       0.0000
Radii:
  Scheme                                          ... Element-dependent radii
  Radius for C  used is    3.4960 Bohr (=   1.8500 Ang.)
  Radius for H  used is    2.2677 Bohr (=   1.2000 Ang.)
  Radius for O  used is    2.8724 Bohr (=   1.5200 Ang.)
  Radius for N  used is    3.5716 Bohr (=   1.8900 Ang.)
Calculating surface                               ...        done! (  0.0s)
Cavity surface points                             ...         6705
Cavity Volume                                     ...    4772.7528
Cavity Surface-area                               ...    2628.9991
Calculating surface distance matrix               ...        done! (  0.6s)
Performing Cholesky decomposition & store         ...        done! (  4.0s)
Overall time for CPCM initialization              ...                 4.6s

----------------------------------------D-I-I-S--------------------------------------------
Iteration    Energy (Eh)           Delta-E    RMSDP     MaxDP     DIISErr   Damp  Time(sec)
-------------------------------------------------------------------------------------------
               ***  Starting incremental Fock matrix formation  ***
    1    -2691.9943541521370207     0.00e+00  1.54e-03  8.03e-02  2.45e-01  0.700 170.3
Warning: op=0 Small HOMO/LUMO gap (   0.067) - skipping pre-diagonalization
         Will do a full diagonalization
    2    -2692.5372080709912552    -5.43e-01  1.03e-03  4.85e-02  1.13e-01  0.700  98.1
                               ***Turning on AO-DIIS***
    3    -2692.7602771429410495    -2.23e-01  4.75e-04  1.61e-02  3.64e-02  0.700 101.3
    4    -2692.8937999537774886    -1.34e-01  8.99e-04  3.66e-02  1.90e-02  0.000  78.9
    5    -2693.1840621165501943    -2.90e-01  1.28e-04  6.35e-03  4.63e-03  0.000  80.7
                              *** Initializing SOSCF ***
---------------------------------------S-O-S-C-F--------------------------------------
Iteration    Energy (Eh)           Delta-E    RMSDP     MaxDP     MaxGrad    Time(sec)
--------------------------------------------------------------------------------------
    6    -2693.1853787298095995    -1.32e-03  3.96e-05  2.21e-03  1.82e-03    75.4
               *** Restarting incremental Fock matrix formation ***
    7    -2693.1851506228031212     2.28e-04  2.45e-05  1.08e-03  2.23e-04   204.9
    8    -2693.1851567707617505    -6.15e-06  1.05e-05  8.92e-04  2.89e-04    99.6
    9    -2693.1851642172368884    -7.45e-06  5.97e-06  3.63e-04  1.13e-04    79.9
   10    -2693.1851642149013060     2.34e-09  2.14e-06  1.93e-04  9.04e-05    76.9
                 **** Energy Check signals convergence ****

               *****************************************************
               *                     SUCCESS                       *
               *           SCF CONVERGED AFTER  10 CYCLES          *
               *****************************************************

Recomputing exchange energy using gridx3       ... done (  286.310 sec)
Old exchange energy                            :    -70.179251740 Eh
New exchange energy                            :    -70.179256146 Eh
Exchange energy change after final integration :     -0.000004406 Eh
Total energy after final integration           :  -2693.185169141 Eh

SMD CDS free energy correction energy :                13.85930     Kcal/mol
Total Energy after SMD CDS correction =             -2693.163082938 Eh
             **** ENERGY FILE WAS UPDATED (doxorubicin_on_go_solv.en.tmp) ****

----------------
TOTAL SCF ENERGY
----------------

Total Energy       :      -2693.16308293839438 Eh          -73284.69321 eV

Components:
Nuclear Repulsion  :       8266.99966142214907 Eh          224956.49735 eV
Electronic Energy  :     -10960.08316864065455 Eh         -298239.02520 eV
One Electron Energy:     -20149.69933174602920 Eh         -548301.19391 eV
Two Electron Energy:       9189.61616310537465 Eh          250062.16871 eV
CPCM Dielectric    :         -0.10165751622079 Eh              -2.76624 eV
SMD CDS (Gcds)     :          0.02208620272960 Eh               0.60100 eV

Virial components:
Potential Energy   :      -5370.84843216256922 Eh         -146148.21587 eV
Kinetic Energy     :       2677.68534922417439 Eh           72863.52266 eV
Virial Ratio       :          2.00578026604907

DFT components:
N(Alpha)           :      204.000268870215 electrons
N(Beta)            :      204.000268870215 electrons
N(Total)           :      408.000537740430 electrons
E(X)               :     -278.889721330475 Eh       
E(C)               :      -16.609131802482 Eh       
E(XC)              :     -295.498853132958 Eh       

CPCM Solvation Model Properties:
Surface-charge          :         -0.06554717524332
Corrected charge        :         -0.00000000000000
Outlying charge corr.   :          0.00016868190735 Eh               0.00459 eV
Free-energy (cav+disp)  :          0.02208620272960 Eh               0.60100 eV

---------------
SCF CONVERGENCE
---------------

  Last Energy change         ...   -2.3356e-09  Tolerance :   1.0000e-06
  Last MAX-Density change    ...    1.9328e-04  Tolerance :   1.0000e-05
  Last RMS-Density change    ...    2.1356e-06  Tolerance :   1.0000e-06
  Last DIIS Error            ...    1.8231e-03  Tolerance :   1.0000e-06
  Last Orbital Gradient      ...    9.0396e-05  Tolerance :   5.0000e-05
  Last Orbital Rotation      ...    1.3312e-04  Tolerance :   5.0000e-05


----------------
ORBITAL ENERGIES
----------------

  NO   OCC          E(Eh)            E(eV) 
   0   2.0000     -19.184181      -522.0281 
   1   2.0000     -19.172516      -521.7107 
   2   2.0000     -19.169847      -521.6380 
   3   2.0000     -19.167356      -521.5703 
   4   2.0000     -19.164059      -521.4806 
   5   2.0000     -19.156224      -521.2674 
   6   2.0000     -19.154234      -521.2132 
   7   2.0000     -19.151036      -521.1262 
   8   2.0000     -19.147851      -521.0395 
   9   2.0000     -19.147742      -521.0365 
  10   2.0000     -19.143799      -520.9293 
  11   2.0000     -19.143284      -520.9152 
  12   2.0000     -19.138067      -520.7733 
  13   2.0000     -14.293722      -388.9519 
  14   2.0000     -10.287260      -279.9306 
  15   2.0000     -10.285810      -279.8911 
  16   2.0000     -10.284685      -279.8605 
  17   2.0000     -10.270154      -279.4651 
  18   2.0000     -10.266533      -279.3666 
  19   2.0000     -10.264936      -279.3231 
  20   2.0000     -10.264566      -279.3130 
  21   2.0000     -10.253097      -279.0010 
  22   2.0000     -10.244364      -278.7633 
  23   2.0000     -10.239246      -278.6241 
  24   2.0000     -10.234660      -278.4992 
  25   2.0000     -10.233884      -278.4781 
  26   2.0000     -10.228821      -278.3404 
  27   2.0000     -10.220840      -278.1232 
  28   2.0000     -10.220300      -278.1085 
  29   2.0000     -10.216567      -278.0069 
  30   2.0000     -10.212942      -277.9083 
  31   2.0000     -10.209282      -277.8087 
  32   2.0000     -10.208672      -277.7921 
  33   2.0000     -10.207685      -277.7652 
  34   2.0000     -10.203712      -277.6571 
  35   2.0000     -10.203351      -277.6473 
  36   2.0000     -10.198303      -277.5099 
  37   2.0000     -10.197508      -277.4883 
  38   2.0000     -10.195155      -277.4243 
  39   2.0000     -10.194299      -277.4010 
  40   2.0000     -10.194071      -277.3948 
  41   2.0000     -10.193896      -277.3900 
  42   2.0000     -10.192586      -277.3544 
  43   2.0000     -10.189142      -277.2606 
  44   2.0000     -10.188983      -277.2563 
  45   2.0000     -10.188891      -277.2538 
  46   2.0000     -10.186454      -277.1875 
  47   2.0000     -10.182092      -277.0688 
  48   2.0000     -10.181045      -277.0403 
  49   2.0000     -10.180289      -277.0198 
  50   2.0000     -10.180145      -277.0158 
  51   2.0000     -10.178895      -276.9818 
  52   2.0000     -10.178041      -276.9586 
  53   2.0000     -10.175177      -276.8807 
  54   2.0000     -10.173481      -276.8345 
  55   2.0000     -10.167258      -276.6652 
  56   2.0000     -10.154558      -276.3196 
  57   2.0000      -1.079013       -29.3614 
  58   2.0000      -1.074829       -29.2476 
  59   2.0000      -1.072661       -29.1886 
  60   2.0000      -1.071723       -29.1631 
  61   2.0000      -1.070674       -29.1345 
  62   2.0000      -1.060302       -28.8523 
  63   2.0000      -1.053010       -28.6539 
  64   2.0000      -1.041237       -28.3335 
  65   2.0000      -1.037320       -28.2269 
  66   2.0000      -1.030724       -28.0474 
  67   2.0000      -1.016754       -27.6673 
  68   2.0000      -1.016137       -27.6505 
  69   2.0000      -1.002451       -27.2781 
  70   2.0000      -0.883214       -24.0335 
  71   2.0000      -0.879308       -23.9272 
  72   2.0000      -0.872327       -23.7372 
  73   2.0000      -0.866348       -23.5745 
  74   2.0000      -0.830668       -22.6036 
  75   2.0000      -0.830553       -22.6005 
  76   2.0000      -0.825263       -22.4565 
  77   2.0000      -0.787750       -21.4358 
  78   2.0000      -0.779890       -21.2219 
  79   2.0000      -0.771436       -20.9918 
  80   2.0000      -0.769467       -20.9383 
  81   2.0000      -0.760197       -20.6860 
  82   2.0000      -0.758023       -20.6268 
  83   2.0000      -0.756585       -20.5877 
  84   2.0000      -0.750526       -20.4228 
  85   2.0000      -0.740186       -20.1415 
  86   2.0000      -0.734092       -19.9757 
  87   2.0000      -0.717771       -19.5315 
  88   2.0000      -0.713845       -19.4247 
  89   2.0000      -0.701419       -19.0866 
  90   2.0000      -0.686555       -18.6821 
  91   2.0000      -0.685888       -18.6640 
  92   2.0000      -0.677032       -18.4230 
  93   2.0000      -0.663380       -18.0515 
  94   2.0000      -0.649095       -17.6628 
  95   2.0000      -0.633467       -17.2375 
  96   2.0000      -0.631690       -17.1892 
  97   2.0000      -0.626829       -17.0569 
  98   2.0000      -0.620726       -16.8908 
  99   2.0000      -0.618087       -16.8190 
 100   2.0000      -0.616247       -16.7689 
 101   2.0000      -0.610634       -16.6162 
 102   2.0000      -0.601328       -16.3630 
 103   2.0000      -0.601199       -16.3595 
 104   2.0000      -0.577822       -15.7233 
 105   2.0000      -0.567122       -15.4322 
 106   2.0000      -0.563236       -15.3264 
 107   2.0000      -0.553026       -15.0486 
 108   2.0000      -0.546216       -14.8633 
 109   2.0000      -0.541846       -14.7444 
 110   2.0000      -0.532838       -14.4993 
 111   2.0000      -0.526847       -14.3362 
 112   2.0000      -0.524293       -14.2667 
 113   2.0000      -0.522710       -14.2237 
 114   2.0000      -0.517113       -14.0714 
 115   2.0000      -0.514493       -14.0001 
 116   2.0000      -0.511756       -13.9256 
 117   2.0000      -0.506226       -13.7751 
 118   2.0000      -0.501395       -13.6437 
 119   2.0000      -0.501115       -13.6360 
 120   2.0000      -0.498183       -13.5562 
 121   2.0000      -0.491650       -13.3785 
 122   2.0000      -0.485344       -13.2069 
 123   2.0000      -0.484335       -13.1794 
 124   2.0000      -0.481468       -13.1014 
 125   2.0000      -0.478282       -13.0147 
 126   2.0000      -0.473194       -12.8763 
 127   2.0000      -0.470274       -12.7968 
 128   2.0000      -0.468278       -12.7425 
 129   2.0000      -0.468034       -12.7358 
 130   2.0000      -0.462635       -12.5889 
 131   2.0000      -0.458566       -12.4782 
 132   2.0000      -0.455778       -12.4024 
 133   2.0000      -0.451136       -12.2760 
 134   2.0000      -0.449604       -12.2343 
 135   2.0000      -0.446323       -12.1451 
 136   2.0000      -0.441144       -12.0042 
 137   2.0000      -0.434627       -11.8268 
 138   2.0000      -0.432865       -11.7789 
 139   2.0000      -0.430754       -11.7214 
 140   2.0000      -0.430402       -11.7118 
 141   2.0000      -0.426447       -11.6042 
 142   2.0000      -0.421418       -11.4674 
 143   2.0000      -0.418366       -11.3843 
 144   2.0000      -0.417245       -11.3538 
 145   2.0000      -0.414994       -11.2926 
 146   2.0000      -0.412850       -11.2342 
 147   2.0000      -0.411547       -11.1988 
 148   2.0000      -0.410953       -11.1826 
 149   2.0000      -0.408137       -11.1060 
 150   2.0000      -0.402671       -10.9572 
 151   2.0000      -0.400725       -10.9043 
 152   2.0000      -0.397229       -10.8092 
 153   2.0000      -0.396088       -10.7781 
 154   2.0000      -0.391648       -10.6573 
 155   2.0000      -0.390136       -10.6161 
 156   2.0000      -0.386772       -10.5246 
 157   2.0000      -0.384740       -10.4693 
 158   2.0000      -0.382503       -10.4084 
 159   2.0000      -0.381928       -10.3928 
 160   2.0000      -0.380408       -10.3514 
 161   2.0000      -0.379525       -10.3274 
 162   2.0000      -0.378263       -10.2931 
 163   2.0000      -0.375369       -10.2143 
 164   2.0000      -0.373432       -10.1616 
 165   2.0000      -0.370894       -10.0925 
 166   2.0000      -0.369780       -10.0622 
 167   2.0000      -0.366991        -9.9863 
 168   2.0000      -0.363407        -9.8888 
 169   2.0000      -0.360896        -9.8205 
 170   2.0000      -0.358269        -9.7490 
 171   2.0000      -0.356927        -9.7125 
 172   2.0000      -0.353562        -9.6209 
 173   2.0000      -0.343144        -9.3374 
 174   2.0000      -0.341578        -9.2948 
 175   2.0000      -0.338970        -9.2238 
 176   2.0000      -0.335250        -9.1226 
 177   2.0000      -0.333569        -9.0769 
 178   2.0000      -0.333164        -9.0659 
 179   2.0000      -0.329206        -8.9581 
 180   2.0000      -0.326617        -8.8877 
 181   2.0000      -0.326254        -8.8778 
 182   2.0000      -0.317116        -8.6292 
 183   2.0000      -0.311982        -8.4895 
 184   2.0000      -0.310172        -8.4402 
 185   2.0000      -0.295714        -8.0468 
 186   2.0000      -0.290532        -7.9058 
 187   2.0000      -0.279201        -7.5974 
 188   2.0000      -0.278335        -7.5739 
 189   2.0000      -0.275580        -7.4989 
 190   2.0000      -0.274150        -7.4600 
 191   2.0000      -0.272436        -7.4134 
 192   2.0000      -0.267539        -7.2801 
 193   2.0000      -0.263150        -7.1607 
 194   2.0000      -0.260944        -7.1006 
 195   2.0000      -0.258775        -7.0416 
 196   2.0000      -0.257932        -7.0187 
 197   2.0000      -0.252705        -6.8765 
 198   2.0000      -0.247304        -6.7295 
 199   2.0000      -0.235330        -6.4037 
 200   2.0000      -0.228513        -6.2181 
 201   2.0000      -0.222451        -6.0532 
 202   2.0000      -0.213190        -5.8012 
 203   2.0000      -0.186691        -5.0801 
 204   0.0000      -0.105330        -2.8662 
 205   0.0000      -0.068751        -1.8708 
 206   0.0000      -0.046927        -1.2769 
 207   0.0000      -0.033186        -0.9030 
 208   0.0000      -0.021249        -0.5782 
 209   0.0000      -0.007427        -0.2021 
 210   0.0000       0.000101         0.0027 
 211   0.0000       0.009533         0.2594 
 212   0.0000       0.019843         0.5400 
 213   0.0000       0.052883         1.4390 
 214   0.0000       0.060946         1.6584 
*Only the first 10 virtual orbitals were printed.

                    ********************************
                    * MULLIKEN POPULATION ANALYSIS *
                    ********************************

-----------------------
MULLIKEN ATOMIC CHARGES
-----------------------
   0 C :    0.036901
   1 C :   -0.036630
   2 C :    0.131824
   3 C :   -0.214076
   4 C :   -0.229769
   5 C :    0.142325
   6 C :   -0.319955
   7 C :    0.368083
   8 C :   -0.300422
   9 C :    0.133880
  10 C :   -0.213536
  11 C :   -0.219297
  12 C :    0.153212
  13 C :   -0.244713
  14 C :   -0.010544
  15 C :   -0.007566
  16 H :    0.179139
  17 H :    0.177237
  18 H :    0.163999
  19 H :    0.163808
  20 H :    0.169295
  21 H :    0.160875
  22 H :    0.157666
  23 H :    0.166434
  24 H :    0.168193
  25 O :   -0.517960
  26 O :   -0.686579
  27 H :    0.464515
  28 C :   -0.485760
  29 C :    0.128942
  30 C :    0.116675
  31 C :    0.004334
  32 C :   -0.329399
  33 C :    0.352015
  34 O :   -0.551853
  35 O :   -0.538596
  36 C :    0.097759
  37 C :   -0.334049
  38 C :    0.255039
  39 C :   -0.386541
  40 C :    0.080098
  41 C :    0.041183
  42 C :    0.246705
  43 C :    0.002842
  44 C :    0.011691
  45 C :    0.232443
  46 O :   -0.660740
  47 C :    0.317832
  48 O :   -0.546458
  49 C :    0.050421
  50 C :    0.022109
  51 C :    0.344508
  52 O :   -0.554638
  53 C :    0.318553
  54 C :   -0.207820
  55 C :   -0.137470
  56 C :   -0.190361
  57 O :   -0.487313
  58 C :   -0.240242
  59 O :   -0.665141
  60 C :    0.403140
  61 O :   -0.471468
  62 C :   -0.080687
  63 O :   -0.682101
  64 O :   -0.701612
  65 N :   -0.777956
  66 O :   -0.701993
  67 H :    0.155442
  68 H :    0.167220
  69 H :    0.157079
  70 H :    0.145165
  71 H :    0.148104
  72 H :    0.149578
  73 H :    0.169803
  74 H :    0.167674
  75 H :    0.155065
  76 H :    0.176687
  77 H :    0.178679
  78 H :    0.170016
  79 H :    0.201361
  80 H :    0.198225
  81 H :    0.466393
  82 H :    0.196428
  83 H :    0.183657
  84 H :    0.172604
  85 H :    0.183265
  86 H :    0.191400
  87 H :    0.183810
  88 H :    0.470836
  89 H :    0.197567
  90 H :    0.191445
  91 H :    0.442774
  92 H :    0.454402
  93 H :    0.322900
  94 H :    0.325667
  95 H :    0.446319
Sum of atomic charges:   -0.0000000

--------------------------------
MULLIKEN REDUCED ORBITAL CHARGES
--------------------------------
  0 C s       :     3.189957  s :     3.189957
      pz      :     1.008768  p :     2.705190
      px      :     0.778866
      py      :     0.917556
      dz2     :     0.014533  d :     0.067952
      dxz     :     0.013409
      dyz     :     0.009920
      dx2y2   :     0.013394
      dxy     :     0.016696

  1 C s       :     3.220425  s :     3.220425
      pz      :     0.935638  p :     2.747185
      px      :     1.005473
      py      :     0.806073
      dz2     :     0.015202  d :     0.069020
      dxz     :     0.011740
      dyz     :     0.015360
      dx2y2   :     0.011111
      dxy     :     0.015607

  2 C s       :     3.146646  s :     3.146646
      pz      :     0.786682  p :     2.681476
      px      :     0.939291
      py      :     0.955503
      dz2     :     0.010904  d :     0.040055
      dxz     :     0.010979
      dyz     :     0.006204
      dx2y2   :     0.006086
      dxy     :     0.005882

  3 C s       :     3.232371  s :     3.232371
      pz      :     0.953841  p :     2.944849
      px      :     0.988488
      py      :     1.002520
      dz2     :     0.009803  d :     0.036856
      dxz     :     0.009990
      dyz     :     0.008125
      dx2y2   :     0.003407
      dxy     :     0.005530

  4 C s       :     3.233023  s :     3.233023
      pz      :     0.974543  p :     2.960640
      px      :     0.991278
      py      :     0.994819
      dz2     :     0.008355  d :     0.036106
      dxz     :     0.010818
      dyz     :     0.007791
      dx2y2   :     0.003872
      dxy     :     0.005270

  5 C s       :     3.157302  s :     3.157302
      pz      :     0.848361  p :     2.657998
      px      :     0.882361
      py      :     0.927275
      dz2     :     0.010153  d :     0.042375
      dxz     :     0.011600
      dyz     :     0.009001
      dx2y2   :     0.005898
      dxy     :     0.005722

  6 C s       :     3.215775  s :     3.215775
      pz      :     1.035374  p :     3.070242
      px      :     0.986386
      py      :     1.048482
      dz2     :     0.008143  d :     0.033938
      dxz     :     0.009704
      dyz     :     0.006391
      dx2y2   :     0.004533
      dxy     :     0.005167

  7 C s       :     3.077569  s :     3.077569
      pz      :     0.681298  p :     2.483274
      px      :     0.869985
      py      :     0.931991
      dz2     :     0.019209  d :     0.071073
      dxz     :     0.020852
      dyz     :     0.015827
      dx2y2   :     0.008094
      dxy     :     0.007091

  8 C s       :     3.247279  s :     3.247279
      pz      :     1.007125  p :     3.019141
      px      :     0.994289
      py      :     1.017727
      dz2     :     0.008680  d :     0.034003
      dxz     :     0.009946
      dyz     :     0.007013
      dx2y2   :     0.003703
      dxy     :     0.004660

  9 C s       :     3.162128  s :     3.162128
      pz      :     0.827456  p :     2.661599
      px      :     0.894201
      py      :     0.939943
      dz2     :     0.010615  d :     0.042392
      dxz     :     0.011566
      dyz     :     0.008871
      dx2y2   :     0.005616
      dxy     :     0.005723

 10 C s       :     3.225398  s :     3.225398
      pz      :     0.961699  p :     2.951741
      px      :     0.995289
      py      :     0.994753
      dz2     :     0.009546  d :     0.036397
      dxz     :     0.010529
      dyz     :     0.008185
      dx2y2   :     0.003198
      dxy     :     0.004940

 11 C s       :     3.228792  s :     3.228792
      pz      :     0.990541  p :     2.954062
      px      :     0.977889
      py      :     0.985631
      dz2     :     0.008395  d :     0.036443
      dxz     :     0.011724
      dyz     :     0.007736
      dx2y2   :     0.003757
      dxy     :     0.004831

 12 C s       :     3.150386  s :     3.150386
      pz      :     0.840223  p :     2.654223
      px      :     0.873344
      py      :     0.940656
      dz2     :     0.009859  d :     0.042179
      dxz     :     0.012326
      dyz     :     0.009272
      dx2y2   :     0.005375
      dxy     :     0.005347

 13 C s       :     3.234243  s :     3.234243
      pz      :     1.023343  p :     2.976126
      px      :     0.962522
      py      :     0.990260
      dz2     :     0.008542  d :     0.034344
      dxz     :     0.012655
      dyz     :     0.005392
      dx2y2   :     0.003552
      dxy     :     0.004203

 14 C s       :     3.175587  s :     3.175587
      pz      :     0.946387  p :     2.794560
      px      :     0.896135
      py      :     0.952038
      dz2     :     0.009935  d :     0.040397
      dxz     :     0.011213
      dyz     :     0.007563
      dx2y2   :     0.005915
      dxy     :     0.005771

 15 C s       :     3.169322  s :     3.169322
      pz      :     0.909714  p :     2.798655
      px      :     0.915473
      py      :     0.973467
      dz2     :     0.010169  d :     0.039589
      dxz     :     0.010742
      dyz     :     0.007486
      dx2y2   :     0.005542
      dxy     :     0.005650

 16 H s       :     0.820861  s :     0.820861

 17 H s       :     0.822763  s :     0.822763

 18 H s       :     0.836001  s :     0.836001

 19 H s       :     0.836192  s :     0.836192

 20 H s       :     0.830705  s :     0.830705

 21 H s       :     0.839125  s :     0.839125

 22 H s       :     0.842334  s :     0.842334

 23 H s       :     0.833566  s :     0.833566

 24 H s       :     0.831807  s :     0.831807

 25 O s       :     3.924831  s :     3.924831
      pz      :     1.622492  p :     4.560191
      px      :     1.493021
      py      :     1.444678
      dz2     :     0.004300  d :     0.032938
      dxz     :     0.004136
      dyz     :     0.006590
      dx2y2   :     0.008702
      dxy     :     0.009210

 26 O s       :     3.883968  s :     3.883968
      pz      :     1.301581  p :     4.775167
      px      :     1.690415
      py      :     1.783172
      dz2     :     0.003518  d :     0.027443
      dxz     :     0.010450
      dyz     :     0.005559
      dx2y2   :     0.002675
      dxy     :     0.005242

 27 H s       :     0.535485  s :     0.535485

 28 C s       :     3.302689  s :     3.302689
      pz      :     1.046414  p :     3.149495
      px      :     1.082182
      py      :     1.020899
      dz2     :     0.003413  d :     0.033576
      dxz     :     0.009600
      dyz     :     0.008574
      dx2y2   :     0.007790
      dxy     :     0.004199

 29 C s       :     3.152568  s :     3.152568
      pz      :     0.975264  p :     2.651927
      px      :     0.742991
      py      :     0.933672
      dz2     :     0.008163  d :     0.066563
      dxz     :     0.018286
      dyz     :     0.012606
      dx2y2   :     0.015231
      dxy     :     0.012277

 30 C s       :     3.145995  s :     3.145995
      pz      :     0.958574  p :     2.670673
      px      :     0.760422
      py      :     0.951677
      dz2     :     0.007352  d :     0.066657
      dxz     :     0.014921
      dyz     :     0.016800
      dx2y2   :     0.013851
      dxy     :     0.013734

 31 C s       :     3.172207  s :     3.172207
      pz      :     0.811870  p :     2.765439
      px      :     0.927531
      py      :     1.026038
      dz2     :     0.018019  d :     0.058020
      dxz     :     0.012286
      dyz     :     0.009539
      dx2y2   :     0.012090
      dxy     :     0.006086

 32 C s       :     3.262272  s :     3.262272
      pz      :     0.958357  p :     3.029535
      px      :     0.989864
      py      :     1.081314
      dz2     :     0.009088  d :     0.037592
      dxz     :     0.005954
      dyz     :     0.006521
      dx2y2   :     0.006643
      dxy     :     0.009386

 33 C s       :     3.058991  s :     3.058991
      pz      :     0.875822  p :     2.492243
      px      :     0.945237
      py      :     0.671185
      dz2     :     0.018450  d :     0.096751
      dxz     :     0.009321
      dyz     :     0.023199
      dx2y2   :     0.026111
      dxy     :     0.019671

 34 O s       :     3.871046  s :     3.871046
      pz      :     1.725644  p :     4.655307
      px      :     1.385393
      py      :     1.544270
      dz2     :     0.003217  d :     0.025500
      dxz     :     0.005931
      dyz     :     0.005097
      dx2y2   :     0.006884
      dxy     :     0.004371

 35 O s       :     3.883622  s :     3.883622
      pz      :     1.322984  p :     4.628654
      px      :     1.765509
      py      :     1.540161
      dz2     :     0.007516  d :     0.026320
      dxz     :     0.005281
      dyz     :     0.005058
      dx2y2   :     0.004316
      dxy     :     0.004149

 36 C s       :     3.150539  s :     3.150539
      pz      :     0.719090  p :     2.683337
      px      :     0.965977
      py      :     0.998269
      dz2     :     0.021071  d :     0.068364
      dxz     :     0.016795
      dyz     :     0.009642
      dx2y2   :     0.006854
      dxy     :     0.014002

 37 C s       :     3.268462  s :     3.268462
      pz      :     0.943677  p :     3.027675
      px      :     1.015861
      py      :     1.068137
      dz2     :     0.007979  d :     0.037911
      dxz     :     0.008847
      dyz     :     0.005583
      dx2y2   :     0.010311
      dxy     :     0.005192

 38 C s       :     3.133065  s :     3.133065
      pz      :     0.843955  p :     2.540650
      px      :     0.737563
      py      :     0.959131
      dz2     :     0.014175  d :     0.071246
      dxz     :     0.019234
      dyz     :     0.010882
      dx2y2   :     0.016936
      dxy     :     0.010020

 39 C s       :     3.280450  s :     3.280450
      pz      :     1.063908  p :     3.066975
      px      :     1.041611
      py      :     0.961456
      dz2     :     0.007553  d :     0.039117
      dxz     :     0.007687
      dyz     :     0.008349
      dx2y2   :     0.010076
      dxy     :     0.005451

 40 C s       :     3.159224  s :     3.159224
      pz      :     0.926860  p :     2.721167
      px      :     0.885342
      py      :     0.908965
      dz2     :     0.008530  d :     0.039510
      dxz     :     0.006598
      dyz     :     0.007611
      dx2y2   :     0.008237
      dxy     :     0.008535

 41 C s       :     3.157647  s :     3.157647
      pz      :     0.936570  p :     2.763357
      px      :     0.947676
      py      :     0.879111
      dz2     :     0.007061  d :     0.037813
      dxz     :     0.006529
      dyz     :     0.007073
      dx2y2   :     0.008841
      dxy     :     0.008309

 42 C s       :     3.141523  s :     3.141523
      pz      :     0.831001  p :     2.538693
      px      :     0.895482
      py      :     0.812209
      dz2     :     0.013751  d :     0.073079
      dxz     :     0.010320
      dyz     :     0.016917
      dx2y2   :     0.015571
      dxy     :     0.016520

 43 C s       :     3.145254  s :     3.145254
      pz      :     0.994637  p :     2.815222
      px      :     0.942718
      py      :     0.877867
      dz2     :     0.006414  d :     0.036682
      dxz     :     0.006499
      dyz     :     0.007458
      dx2y2   :     0.007922
      dxy     :     0.008390

 44 C s       :     3.143166  s :     3.143166
      pz      :     0.982316  p :     2.808079
      px      :     0.922488
      py      :     0.903276
      dz2     :     0.008004  d :     0.037064
      dxz     :     0.006106
      dyz     :     0.006930
      dx2y2   :     0.007880
      dxy     :     0.008145

 45 C s       :     3.138298  s :     3.138298
      pz      :     0.809857  p :     2.556274
      px      :     0.901095
      py      :     0.845321
      dz2     :     0.016638  d :     0.072985
      dxz     :     0.011563
      dyz     :     0.015881
      dx2y2   :     0.013611
      dxy     :     0.015292

 46 O s       :     3.887960  s :     3.887960
      pz      :     1.620293  p :     4.744931
      px      :     1.704861
      py      :     1.419778
      dz2     :     0.007048  d :     0.027848
      dxz     :     0.005138
      dyz     :     0.004067
      dx2y2   :     0.002514
      dxy     :     0.009082

 47 C s       :     3.114668  s :     3.114668
      pz      :     0.787117  p :     2.480498
      px      :     0.840581
      py      :     0.852801
      dz2     :     0.016800  d :     0.087001
      dxz     :     0.015242
      dyz     :     0.017882
      dx2y2   :     0.021205
      dxy     :     0.015872

 48 O s       :     3.881402  s :     3.881402
      pz      :     1.444464  p :     4.640136
      px      :     1.602073
      py      :     1.593598
      dz2     :     0.006071  d :     0.024920
      dxz     :     0.003218
      dyz     :     0.006647
      dx2y2   :     0.003783
      dxy     :     0.005201

 49 C s       :     3.176008  s :     3.176008
      pz      :     0.949038  p :     2.734610
      px      :     0.936912
      py      :     0.848659
      dz2     :     0.006037  d :     0.038962
      dxz     :     0.006547
      dyz     :     0.008893
      dx2y2   :     0.008546
      dxy     :     0.008939

 50 C s       :     3.164455  s :     3.164455
      pz      :     0.978141  p :     2.777861
      px      :     0.915800
      py      :     0.883920
      dz2     :     0.006903  d :     0.035575
      dxz     :     0.005930
      dyz     :     0.006719
      dx2y2   :     0.008103
      dxy     :     0.007921

 51 C s       :     3.123451  s :     3.123451
      pz      :     0.797299  p :     2.445382
      px      :     0.838397
      py      :     0.809686
      dz2     :     0.017249  d :     0.086658
      dxz     :     0.015313
      dyz     :     0.016981
      dx2y2   :     0.020972
      dxy     :     0.016143

 52 O s       :     3.894492  s :     3.894492
      pz      :     1.477212  p :     4.635090
      px      :     1.632064
      py      :     1.525814
      dz2     :     0.006625  d :     0.025056
      dxz     :     0.004063
      dyz     :     0.005922
      dx2y2   :     0.003256
      dxy     :     0.005190

 53 C s       :     3.107136  s :     3.107136
      pz      :     0.821488  p :     2.502402
      px      :     0.879355
      py      :     0.801558
      dz2     :     0.014081  d :     0.071910
      dxz     :     0.010214
      dyz     :     0.017124
      dx2y2   :     0.014419
      dxy     :     0.016073

 54 C s       :     3.202341  s :     3.202341
      pz      :     1.010749  p :     2.971453
      px      :     1.011245
      py      :     0.949459
      dz2     :     0.004834  d :     0.034026
      dxz     :     0.006914
      dyz     :     0.006605
      dx2y2   :     0.008369
      dxy     :     0.007304

 55 C s       :     3.223608  s :     3.223608
      pz      :     0.929006  p :     2.876469
      px      :     0.946255
      py      :     1.001208
      dz2     :     0.008033  d :     0.037392
      dxz     :     0.005858
      dyz     :     0.006201
      dx2y2   :     0.008458
      dxy     :     0.008843

 56 C s       :     3.229558  s :     3.229558
      pz      :     0.971344  p :     2.924990
      px      :     0.953492
      py      :     1.000154
      dz2     :     0.004811  d :     0.035812
      dxz     :     0.005921
      dyz     :     0.008638
      dx2y2   :     0.007990
      dxy     :     0.008452

 57 O s       :     3.869862  s :     3.869862
      pz      :     1.474032  p :     4.587210
      px      :     1.497787
      py      :     1.615392
      dz2     :     0.005214  d :     0.030241
      dxz     :     0.004773
      dyz     :     0.007875
      dx2y2   :     0.005427
      dxy     :     0.006951

 58 C s       :     3.265868  s :     3.265868
      pz      :     0.946867  p :     2.916421
      px      :     0.865299
      py      :     1.104255
      dz2     :     0.005319  d :     0.057954
      dxz     :     0.017171
      dyz     :     0.014910
      dx2y2   :     0.012889
      dxy     :     0.007664

 59 O s       :     3.899961  s :     3.899961
      pz      :     1.554107  p :     4.737295
      px      :     1.589483
      py      :     1.593705
      dz2     :     0.003536  d :     0.027885
      dxz     :     0.003712
      dyz     :     0.007676
      dx2y2   :     0.005177
      dxy     :     0.007785

 60 C s       :     3.124765  s :     3.124765
      pz      :     0.850718  p :     2.387273
      px      :     0.766018
      py      :     0.770537
      dz2     :     0.014587  d :     0.084822
      dxz     :     0.010683
      dyz     :     0.022745
      dx2y2   :     0.017669
      dxy     :     0.019137

 61 O s       :     3.876709  s :     3.876709
      pz      :     1.678559  p :     4.567731
      px      :     1.507766
      py      :     1.381406
      dz2     :     0.003313  d :     0.027027
      dxz     :     0.002665
      dyz     :     0.005948
      dx2y2   :     0.008251
      dxy     :     0.006851

 62 C s       :     3.191775  s :     3.191775
      pz      :     0.929343  p :     2.825014
      px      :     0.935486
      py      :     0.960184
      dz2     :     0.010148  d :     0.063899
      dxz     :     0.014584
      dyz     :     0.011790
      dx2y2   :     0.015041
      dxy     :     0.012335

 63 O s       :     3.870916  s :     3.870916
      pz      :     1.692488  p :     4.785582
      px      :     1.672146
      py      :     1.420949
      dz2     :     0.002885  d :     0.025602
      dxz     :     0.005409
      dyz     :     0.009968
      dx2y2   :     0.005057
      dxy     :     0.002283

 64 O s       :     3.908619  s :     3.908619
      pz      :     1.769586  p :     4.766793
      px      :     1.521387
      py      :     1.475820
      dz2     :     0.004941  d :     0.026199
      dxz     :     0.005475
      dyz     :     0.001818
      dx2y2   :     0.011165
      dxy     :     0.002800

 65 N s       :     3.655321  s :     3.655321
      pz      :     1.362450  p :     4.089530
      px      :     1.366908
      py      :     1.360172
      dz2     :     0.011879  d :     0.033105
      dxz     :     0.002820
      dyz     :     0.002442
      dx2y2   :     0.015540
      dxy     :     0.000423

 66 O s       :     3.883196  s :     3.883196
      pz      :     1.591578  p :     4.793170
      px      :     1.330027
      py      :     1.871564
      dz2     :     0.004551  d :     0.025628
      dxz     :     0.012614
      dyz     :     0.003046
      dx2y2   :     0.002937
      dxy     :     0.002480

 67 H s       :     0.844558  s :     0.844558

 68 H s       :     0.832780  s :     0.832780

 69 H s       :     0.842921  s :     0.842921

 70 H s       :     0.854835  s :     0.854835

 71 H s       :     0.851896  s :     0.851896

 72 H s       :     0.850422  s :     0.850422

 73 H s       :     0.830197  s :     0.830197

 74 H s       :     0.832326  s :     0.832326

 75 H s       :     0.844935  s :     0.844935

 76 H s       :     0.823313  s :     0.823313

 77 H s       :     0.821321  s :     0.821321

 78 H s       :     0.829984  s :     0.829984

 79 H s       :     0.798639  s :     0.798639

 80 H s       :     0.801775  s :     0.801775

 81 H s       :     0.533607  s :     0.533607

 82 H s       :     0.803572  s :     0.803572

 83 H s       :     0.816343  s :     0.816343

 84 H s       :     0.827396  s :     0.827396

 85 H s       :     0.816735  s :     0.816735

 86 H s       :     0.808600  s :     0.808600

 87 H s       :     0.816190  s :     0.816190

 88 H s       :     0.529164  s :     0.529164

 89 H s       :     0.802433  s :     0.802433

 90 H s       :     0.808555  s :     0.808555

 91 H s       :     0.557226  s :     0.557226

 92 H s       :     0.545598  s :     0.545598

 93 H s       :     0.677100  s :     0.677100

 94 H s       :     0.674333  s :     0.674333

 95 H s       :     0.553681  s :     0.553681



                     *******************************
                     * LOEWDIN POPULATION ANALYSIS *
                     *******************************

----------------------
LOEWDIN ATOMIC CHARGES
----------------------
   0 C :   -0.015840
   1 C :   -0.006778
   2 C :   -0.040183
   3 C :   -0.129485
   4 C :   -0.133127
   5 C :   -0.011443
   6 C :   -0.187062
   7 C :    0.064614
   8 C :   -0.158979
   9 C :   -0.014602
  10 C :   -0.133866
  11 C :   -0.130584
  12 C :   -0.017876
  13 C :   -0.153028
  14 C :   -0.009716
  15 C :   -0.023123
  16 H :    0.145386
  17 H :    0.145608
  18 H :    0.149359
  19 H :    0.148539
  20 H :    0.152879
  21 H :    0.149726
  22 H :    0.146808
  23 H :    0.148636
  24 H :    0.149738
  25 O :   -0.288736
  26 O :   -0.342204
  27 H :    0.357789
  28 C :   -0.384596
  29 C :   -0.018749
  30 C :   -0.042173
  31 C :   -0.081632
  32 C :   -0.248153
  33 C :    0.072087
  34 O :   -0.256281
  35 O :   -0.241985
  36 C :    0.005432
  37 C :   -0.242601
  38 C :    0.044988
  39 C :   -0.223762
  40 C :   -0.009534
  41 C :   -0.026440
  42 C :    0.102038
  43 C :   -0.088478
  44 C :   -0.088814
  45 C :    0.099992
  46 O :   -0.317003
  47 C :    0.141910
  48 O :   -0.289665
  49 C :   -0.029457
  50 C :   -0.066005
  51 C :    0.139860
  52 O :   -0.289382
  53 C :    0.103555
  54 C :   -0.154362
  55 C :   -0.095967
  56 C :   -0.119734
  57 O :   -0.151290
  58 C :   -0.211386
  59 O :   -0.318356
  60 C :    0.134974
  61 O :   -0.234298
  62 C :   -0.138803
  63 O :   -0.431194
  64 O :   -0.401460
  65 N :   -0.491080
  66 O :   -0.431304
  67 H :    0.134727
  68 H :    0.132152
  69 H :    0.133312
  70 H :    0.126767
  71 H :    0.122959
  72 H :    0.129094
  73 H :    0.143199
  74 H :    0.143461
  75 H :    0.125266
  76 H :    0.142272
  77 H :    0.147132
  78 H :    0.144030
  79 H :    0.162398
  80 H :    0.155302
  81 H :    0.342264
  82 H :    0.166114
  83 H :    0.158442
  84 H :    0.156336
  85 H :    0.137082
  86 H :    0.146965
  87 H :    0.136806
  88 H :    0.341662
  89 H :    0.153478
  90 H :    0.150251
  91 H :    0.326547
  92 H :    0.347397
  93 H :    0.234709
  94 H :    0.234612
  95 H :    0.341920

-------------------------------
LOEWDIN REDUCED ORBITAL CHARGES
-------------------------------
  0 C s       :     2.891803  s :     2.891803
      pz      :     1.069400  p :     2.974151
      px      :     0.912823
      py      :     0.991928
      dz2     :     0.031326  d :     0.149885
      dxz     :     0.029606
      dyz     :     0.020125
      dx2y2   :     0.029921
      dxy     :     0.038907

  1 C s       :     2.890724  s :     2.890724
      pz      :     1.008602  p :     2.964541
      px      :     1.044206
      py      :     0.911733
      dz2     :     0.035356  d :     0.151513
      dxz     :     0.026920
      dyz     :     0.033208
      dx2y2   :     0.024254
      dxy     :     0.031775

  2 C s       :     2.869671  s :     2.869671
      pz      :     1.024231  p :     3.068866
      px      :     1.035599
      py      :     1.009035
      dz2     :     0.028674  d :     0.101647
      dxz     :     0.029657
      dyz     :     0.015054
      dx2y2   :     0.013619
      dxy     :     0.014642

  3 C s       :     2.916803  s :     2.916803
      pz      :     1.064748  p :     3.126227
      px      :     1.049185
      py      :     1.012293
      dz2     :     0.026771  d :     0.086455
      dxz     :     0.024719
      dyz     :     0.019308
      dx2y2   :     0.005962
      dxy     :     0.009695

  4 C s       :     2.918000  s :     2.918000
      pz      :     1.079323  p :     3.130807
      px      :     1.038068
      py      :     1.013416
      dz2     :     0.021915  d :     0.084320
      dxz     :     0.026383
      dyz     :     0.016799
      dx2y2   :     0.008248
      dxy     :     0.010975

  5 C s       :     2.862631  s :     2.862631
      pz      :     1.040693  p :     3.042167
      px      :     1.021271
      py      :     0.980203
      dz2     :     0.028124  d :     0.106644
      dxz     :     0.030363
      dyz     :     0.021270
      dx2y2   :     0.012786
      dxy     :     0.014102

  6 C s       :     2.917342  s :     2.917342
      pz      :     1.063398  p :     3.189118
      px      :     1.058033
      py      :     1.067686
      dz2     :     0.020801  d :     0.080601
      dxz     :     0.024503
      dyz     :     0.013882
      dx2y2   :     0.009616
      dxy     :     0.011799

  7 C s       :     2.853513  s :     2.853513
      pz      :     0.891762  p :     2.911429
      px      :     1.035945
      py      :     0.983723
      dz2     :     0.048355  d :     0.170443
      dxz     :     0.051287
      dyz     :     0.035904
      dx2y2   :     0.018085
      dxy     :     0.016811

  8 C s       :     2.920183  s :     2.920183
      pz      :     1.051126  p :     3.158606
      px      :     1.069782
      py      :     1.037698
      dz2     :     0.023450  d :     0.080190
      dxz     :     0.025242
      dyz     :     0.016748
      dx2y2   :     0.006306
      dxy     :     0.008444

  9 C s       :     2.863663  s :     2.863663
      pz      :     1.045388  p :     3.044492
      px      :     1.022795
      py      :     0.976308
      dz2     :     0.028637  d :     0.106447
      dxz     :     0.031435
      dyz     :     0.020573
      dx2y2   :     0.012340
      dxy     :     0.013463

 10 C s       :     2.920927  s :     2.920927
      pz      :     1.067496  p :     3.128077
      px      :     1.056649
      py      :     1.003933
      dz2     :     0.026242  d :     0.084861
      dxz     :     0.026127
      dyz     :     0.018549
      dx2y2   :     0.005517
      dxy     :     0.008426

 11 C s       :     2.920746  s :     2.920746
      pz      :     1.090059  p :     3.124906
      px      :     1.033714
      py      :     1.001132
      dz2     :     0.022452  d :     0.084932
      dxz     :     0.028278
      dyz     :     0.016270
      dx2y2   :     0.008097
      dxy     :     0.009836

 12 C s       :     2.867985  s :     2.867985
      pz      :     1.057000  p :     3.044062
      px      :     1.015652
      py      :     0.971410
      dz2     :     0.028590  d :     0.105829
      dxz     :     0.031773
      dyz     :     0.021579
      dx2y2   :     0.011590
      dxy     :     0.012297

 13 C s       :     2.929614  s :     2.929614
      pz      :     1.083635  p :     3.142876
      px      :     1.050545
      py      :     1.008697
      dz2     :     0.021979  d :     0.080538
      dxz     :     0.030274
      dyz     :     0.011243
      dx2y2   :     0.007860
      dxy     :     0.009181

 14 C s       :     2.862430  s :     2.862430
      pz      :     1.029934  p :     3.045397
      px      :     1.022469
      py      :     0.992995
      dz2     :     0.026997  d :     0.101888
      dxz     :     0.030728
      dyz     :     0.017543
      dx2y2   :     0.012615
      dxy     :     0.014004

 15 C s       :     2.858492  s :     2.858492
      pz      :     1.032809  p :     3.064007
      px      :     1.023420
      py      :     1.007777
      dz2     :     0.028132  d :     0.100624
      dxz     :     0.029177
      dyz     :     0.018070
      dx2y2   :     0.011944
      dxy     :     0.013301

 16 H s       :     0.854614  s :     0.854614

 17 H s       :     0.854392  s :     0.854392

 18 H s       :     0.850641  s :     0.850641

 19 H s       :     0.851461  s :     0.851461

 20 H s       :     0.847121  s :     0.847121

 21 H s       :     0.850274  s :     0.850274

 22 H s       :     0.853192  s :     0.853192

 23 H s       :     0.851364  s :     0.851364

 24 H s       :     0.850262  s :     0.850262

 25 O s       :     3.581131  s :     3.581131
      pz      :     1.624102  p :     4.641875
      px      :     1.516204
      py      :     1.501569
      dz2     :     0.009978  d :     0.065730
      dxz     :     0.008024
      dyz     :     0.012108
      dx2y2   :     0.015286
      dxy     :     0.020334

 26 O s       :     3.521823  s :     3.521823
      pz      :     1.320608  p :     4.769679
      px      :     1.680677
      py      :     1.768395
      dz2     :     0.010489  d :     0.050703
      dxz     :     0.019730
      dyz     :     0.011288
      dx2y2   :     0.002986
      dxy     :     0.006210

 27 H s       :     0.642211  s :     0.642211

 28 C s       :     2.982681  s :     2.982681
      pz      :     1.112069  p :     3.335997
      px      :     1.136032
      py      :     1.087896
      dz2     :     0.006620  d :     0.065918
      dxz     :     0.017601
      dyz     :     0.018321
      dx2y2   :     0.015451
      dxy     :     0.007926

 29 C s       :     2.906536  s :     2.906536
      pz      :     1.051324  p :     2.963559
      px      :     0.872446
      py      :     1.039789
      dz2     :     0.016183  d :     0.148654
      dxz     :     0.039167
      dyz     :     0.030466
      dx2y2   :     0.035238
      dxy     :     0.027601

 30 C s       :     2.907826  s :     2.907826
      pz      :     1.046100  p :     2.983421
      px      :     0.884077
      py      :     1.053244
      dz2     :     0.014592  d :     0.150926
      dxz     :     0.035859
      dyz     :     0.037015
      dx2y2   :     0.029963
      dxy     :     0.033497

 31 C s       :     2.893059  s :     2.893059
      pz      :     0.953976  p :     3.059784
      px      :     1.028893
      py      :     1.076915
      dz2     :     0.040285  d :     0.128790
      dxz     :     0.028978
      dyz     :     0.021498
      dx2y2   :     0.025863
      dxy     :     0.012166

 32 C s       :     2.943335  s :     2.943335
      pz      :     1.044491  p :     3.225313
      px      :     1.059008
      py      :     1.121813
      dz2     :     0.021414  d :     0.079505
      dxz     :     0.013124
      dyz     :     0.012949
      dx2y2   :     0.014303
      dxy     :     0.017714

 33 C s       :     2.881728  s :     2.881728
      pz      :     0.985707  p :     2.828795
      px      :     1.025008
      py      :     0.818080
      dz2     :     0.043853  d :     0.217390
      dxz     :     0.018340
      dyz     :     0.051683
      dx2y2   :     0.059035
      dxy     :     0.044479

 34 O s       :     3.491491  s :     3.491491
      pz      :     1.723071  p :     4.705231
      px      :     1.426874
      py      :     1.555286
      dz2     :     0.007171  d :     0.059559
      dxz     :     0.012779
      dyz     :     0.009643
      dx2y2   :     0.016446
      dxy     :     0.013520

 35 O s       :     3.497490  s :     3.497490
      pz      :     1.352424  p :     4.683684
      px      :     1.769228
      py      :     1.562032
      dz2     :     0.018507  d :     0.060811
      dxz     :     0.011840
      dyz     :     0.014601
      dx2y2   :     0.008241
      dxy     :     0.007623

 36 C s       :     2.888075  s :     2.888075
      pz      :     0.849378  p :     2.955543
      px      :     1.049906
      py      :     1.056259
      dz2     :     0.046880  d :     0.150950
      dxz     :     0.039393
      dyz     :     0.020174
      dx2y2   :     0.014783
      dxy     :     0.029720

 37 C s       :     2.942576  s :     2.942576
      pz      :     1.029599  p :     3.218998
      px      :     1.078429
      py      :     1.110970
      dz2     :     0.018110  d :     0.081028
      dxz     :     0.019943
      dyz     :     0.012647
      dx2y2   :     0.020545
      dxy     :     0.009782

 38 C s       :     2.868862  s :     2.868862
      pz      :     0.984571  p :     2.919469
      px      :     0.891001
      py      :     1.043897
      dz2     :     0.032903  d :     0.166681
      dxz     :     0.045939
      dyz     :     0.024672
      dx2y2   :     0.041296
      dxy     :     0.021870

 39 C s       :     2.926812  s :     2.926812
      pz      :     1.097330  p :     3.214536
      px      :     1.083636
      py      :     1.033569
      dz2     :     0.015626  d :     0.082415
      dxz     :     0.015736
      dyz     :     0.016712
      dx2y2   :     0.022974
      dxy     :     0.011367

 40 C s       :     2.875124  s :     2.875124
      pz      :     1.009921  p :     3.035568
      px      :     0.997425
      py      :     1.028221
      dz2     :     0.019481  d :     0.098842
      dxz     :     0.015698
      dyz     :     0.020146
      dx2y2   :     0.021373
      dxy     :     0.022142

 41 C s       :     2.881954  s :     2.881954
      pz      :     1.012757  p :     3.049406
      px      :     1.006818
      py      :     1.029831
      dz2     :     0.016493  d :     0.095080
      dxz     :     0.017052
      dyz     :     0.018413
      dx2y2   :     0.022222
      dxy     :     0.020899

 42 C s       :     2.849018  s :     2.849018
      pz      :     0.918909  p :     2.874056
      px      :     0.981022
      py      :     0.974125
      dz2     :     0.030549  d :     0.174888
      dxz     :     0.025450
      dyz     :     0.040638
      dx2y2   :     0.039075
      dxy     :     0.039176

 43 C s       :     2.867593  s :     2.867593
      pz      :     1.044974  p :     3.124413
      px      :     1.039973
      py      :     1.039465
      dz2     :     0.015451  d :     0.096472
      dxz     :     0.016326
      dyz     :     0.020017
      dx2y2   :     0.021847
      dxy     :     0.022832

 44 C s       :     2.864691  s :     2.864691
      pz      :     1.047156  p :     3.125731
      px      :     1.046015
      py      :     1.032561
      dz2     :     0.019059  d :     0.098392
      dxz     :     0.016898
      dyz     :     0.018767
      dx2y2   :     0.021239
      dxy     :     0.022428

 45 C s       :     2.847776  s :     2.847776
      pz      :     0.921965  p :     2.877416
      px      :     0.981896
      py      :     0.973554
      dz2     :     0.037601  d :     0.174816
      dxz     :     0.028475
      dyz     :     0.038555
      dx2y2   :     0.033771
      dxy     :     0.036414

 46 O s       :     3.512943  s :     3.512943
      pz      :     1.631313  p :     4.750915
      px      :     1.701292
      py      :     1.418309
      dz2     :     0.012145  d :     0.053145
      dxz     :     0.008660
      dyz     :     0.010454
      dx2y2   :     0.006100
      dxy     :     0.015785

 47 C s       :     2.864514  s :     2.864514
      pz      :     0.888861  p :     2.786991
      px      :     0.918180
      py      :     0.979950
      dz2     :     0.036998  d :     0.206585
      dxz     :     0.038193
      dyz     :     0.043466
      dx2y2   :     0.051512
      dxy     :     0.036416

 48 O s       :     3.556385  s :     3.556385
      pz      :     1.472233  p :     4.681575
      px      :     1.596763
      py      :     1.612579
      dz2     :     0.009551  d :     0.051705
      dxz     :     0.008008
      dyz     :     0.016227
      dx2y2   :     0.008537
      dxy     :     0.009382

 49 C s       :     2.876072  s :     2.876072
      pz      :     1.000368  p :     3.053511
      px      :     1.002463
      py      :     1.050680
      dz2     :     0.014447  d :     0.099874
      dxz     :     0.016179
      dyz     :     0.022827
      dx2y2   :     0.023093
      dxy     :     0.023328

 50 C s       :     2.876469  s :     2.876469
      pz      :     1.038906  p :     3.097537
      px      :     1.031957
      py      :     1.026674
      dz2     :     0.016011  d :     0.092000
      dxz     :     0.015669
      dyz     :     0.017723
      dx2y2   :     0.021204
      dxy     :     0.021393

 51 C s       :     2.865917  s :     2.865917
      pz      :     0.889999  p :     2.787540
      px      :     0.923923
      py      :     0.973618
      dz2     :     0.037944  d :     0.206682
      dxz     :     0.037193
      dyz     :     0.041923
      dx2y2   :     0.052652
      dxy     :     0.036970

 52 O s       :     3.556174  s :     3.556174
      pz      :     1.494596  p :     4.681240
      px      :     1.624490
      py      :     1.562153
      dz2     :     0.010146  d :     0.051967
      dxz     :     0.008680
      dyz     :     0.015142
      dx2y2   :     0.007873
      dxy     :     0.010126

 53 C s       :     2.852900  s :     2.852900
      pz      :     0.911378  p :     2.873050
      px      :     0.973875
      py      :     0.987798
      dz2     :     0.030986  d :     0.170496
      dxz     :     0.024689
      dyz     :     0.040874
      dx2y2   :     0.036464
      dxy     :     0.037483

 54 C s       :     2.920315  s :     2.920315
      pz      :     1.048871  p :     3.153131
      px      :     1.058091
      py      :     1.046169
      dz2     :     0.011014  d :     0.080917
      dxz     :     0.013200
      dyz     :     0.017634
      dx2y2   :     0.020926
      dxy     :     0.018142

 55 C s       :     2.919180  s :     2.919180
      pz      :     1.000094  p :     3.088967
      px      :     1.016804
      py      :     1.072070
      dz2     :     0.017607  d :     0.087820
      dxz     :     0.015851
      dyz     :     0.015385
      dx2y2   :     0.019089
      dxy     :     0.019889

 56 C s       :     2.915362  s :     2.915362
      pz      :     1.031753  p :     3.119717
      px      :     1.028488
      py      :     1.059476
      dz2     :     0.010823  d :     0.084656
      dxz     :     0.013535
      dyz     :     0.018753
      dx2y2   :     0.019662
      dxy     :     0.021883

 57 O s       :     3.450087  s :     3.450087
      pz      :     1.487810  p :     4.630944
      px      :     1.516643
      py      :     1.626491
      dz2     :     0.012446  d :     0.070258
      dxz     :     0.014046
      dyz     :     0.017391
      dx2y2   :     0.012072
      dxy     :     0.014303

 58 C s       :     2.978833  s :     2.978833
      pz      :     1.017166  p :     3.115913
      px      :     0.955567
      py      :     1.143180
      dz2     :     0.010907  d :     0.116640
      dxz     :     0.033858
      dyz     :     0.029813
      dx2y2   :     0.025690
      dxy     :     0.016372

 59 O s       :     3.514083  s :     3.514083
      pz      :     1.557206  p :     4.750929
      px      :     1.576126
      py      :     1.617597
      dz2     :     0.007079  d :     0.053344
      dxz     :     0.008225
      dyz     :     0.015214
      dx2y2   :     0.009997
      dxy     :     0.012829

 60 C s       :     2.918601  s :     2.918601
      pz      :     0.956803  p :     2.745795
      px      :     0.855907
      py      :     0.933085
      dz2     :     0.034161  d :     0.200630
      dxz     :     0.022534
      dyz     :     0.057532
      dx2y2   :     0.039026
      dxy     :     0.047377

 61 O s       :     3.556290  s :     3.556290
      pz      :     1.665956  p :     4.622891
      px      :     1.508670
      py      :     1.448265
      dz2     :     0.007270  d :     0.055116
      dxz     :     0.004331
      dyz     :     0.013494
      dx2y2   :     0.014175
      dxy     :     0.015846

 62 C s       :     2.930557  s :     2.930557
      pz      :     1.021595  p :     3.070487
      px      :     1.015863
      py      :     1.033029
      dz2     :     0.023191  d :     0.137759
      dxz     :     0.032004
      dyz     :     0.025539
      dx2y2   :     0.030175
      dxy     :     0.026851

 63 O s       :     3.546904  s :     3.546904
      pz      :     1.697138  p :     4.835926
      px      :     1.697909
      py      :     1.440879
      dz2     :     0.004820  d :     0.048364
      dxz     :     0.009256
      dyz     :     0.016994
      dx2y2   :     0.010822
      dxy     :     0.006473

 64 O s       :     3.562487  s :     3.562487
      pz      :     1.769213  p :     4.792276
      px      :     1.543603
      py      :     1.479459
      dz2     :     0.008169  d :     0.046698
      dxz     :     0.010503
      dyz     :     0.003069
      dx2y2   :     0.018688
      dxy     :     0.006268

 65 N s       :     3.279416  s :     3.279416
      pz      :     1.400379  p :     4.150303
      px      :     1.374990
      py      :     1.374934
      dz2     :     0.022301  d :     0.061361
      dxz     :     0.006539
      dyz     :     0.006364
      dx2y2   :     0.024562
      dxy     :     0.001596

 66 O s       :     3.556462  s :     3.556462
      pz      :     1.610818  p :     4.827772
      px      :     1.349638
      py      :     1.867316
      dz2     :     0.007084  d :     0.047070
      dxz     :     0.022254
      dyz     :     0.004544
      dx2y2   :     0.007030
      dxy     :     0.006159

 67 H s       :     0.865273  s :     0.865273

 68 H s       :     0.867848  s :     0.867848

 69 H s       :     0.866688  s :     0.866688

 70 H s       :     0.873233  s :     0.873233

 71 H s       :     0.877041  s :     0.877041

 72 H s       :     0.870906  s :     0.870906

 73 H s       :     0.856801  s :     0.856801

 74 H s       :     0.856539  s :     0.856539

 75 H s       :     0.874734  s :     0.874734

 76 H s       :     0.857728  s :     0.857728

 77 H s       :     0.852868  s :     0.852868

 78 H s       :     0.855970  s :     0.855970

 79 H s       :     0.837602  s :     0.837602

 80 H s       :     0.844698  s :     0.844698

 81 H s       :     0.657736  s :     0.657736

 82 H s       :     0.833886  s :     0.833886

 83 H s       :     0.841558  s :     0.841558

 84 H s       :     0.843664  s :     0.843664

 85 H s       :     0.862918  s :     0.862918

 86 H s       :     0.853035  s :     0.853035

 87 H s       :     0.863194  s :     0.863194

 88 H s       :     0.658338  s :     0.658338

 89 H s       :     0.846522  s :     0.846522

 90 H s       :     0.849749  s :     0.849749

 91 H s       :     0.673453  s :     0.673453

 92 H s       :     0.652603  s :     0.652603

 93 H s       :     0.765291  s :     0.765291

 94 H s       :     0.765388  s :     0.765388

 95 H s       :     0.658080  s :     0.658080



                      *****************************
                      * MAYER POPULATION ANALYSIS *
                      *****************************

  NA   - Mulliken gross atomic population
  ZA   - Total nuclear charge
  QA   - Mulliken gross atomic charge
  VA   - Mayer's total valence
  BVA  - Mayer's bonded valence
  FA   - Mayer's free valence

  ATOM       NA         ZA         QA         VA         BVA        FA
  0 C      5.9631     6.0000     0.0369     3.7826     3.7826     0.0000
  1 C      6.0366     6.0000    -0.0366     3.7861     3.7861     0.0000
  2 C      5.8682     6.0000     0.1318     3.8617     3.8617     0.0000
  3 C      6.2141     6.0000    -0.2141     3.8530     3.8530    -0.0000
  4 C      6.2298     6.0000    -0.2298     3.8510     3.8510     0.0000
  5 C      5.8577     6.0000     0.1423     3.9330     3.9330    -0.0000
  6 C      6.3200     6.0000    -0.3200     3.8281     3.8281    -0.0000
  7 C      5.6319     6.0000     0.3681     3.7935     3.7935    -0.0000
  8 C      6.3004     6.0000    -0.3004     3.8283     3.8283    -0.0000
  9 C      5.8661     6.0000     0.1339     3.9477     3.9477     0.0000
 10 C      6.2135     6.0000    -0.2135     3.8355     3.8355     0.0000
 11 C      6.2193     6.0000    -0.2193     3.8491     3.8491     0.0000
 12 C      5.8468     6.0000     0.1532     3.9402     3.9402     0.0000
 13 C      6.2447     6.0000    -0.2447     3.8357     3.8357     0.0000
 14 C      6.0105     6.0000    -0.0105     3.9707     3.9707    -0.0000
 15 C      6.0076     6.0000    -0.0076     3.9628     3.9628    -0.0000
 16 H      0.8209     1.0000     0.1791     0.9328     0.9328    -0.0000
 17 H      0.8228     1.0000     0.1772     0.9292     0.9292    -0.0000
 18 H      0.8360     1.0000     0.1640     0.9340     0.9340     0.0000
 19 H      0.8362     1.0000     0.1638     0.9335     0.9335    -0.0000
 20 H      0.8307     1.0000     0.1693     0.9326     0.9326     0.0000
 21 H      0.8391     1.0000     0.1609     0.9600     0.9600     0.0000
 22 H      0.8423     1.0000     0.1577     0.9596     0.9596    -0.0000
 23 H      0.8336     1.0000     0.1664     0.9393     0.9393     0.0000
 24 H      0.8318     1.0000     0.1682     0.9465     0.9465    -0.0000
 25 O      8.5180     8.0000    -0.5180     1.8351     1.8351     0.0000
 26 O      8.6866     8.0000    -0.6866     1.8405     1.8405    -0.0000
 27 H      0.5355     1.0000     0.4645     0.7593     0.7593     0.0000
 28 C      6.4858     6.0000    -0.4858     3.8267     3.8267     0.0000
 29 C      5.8711     6.0000     0.1289     3.8063     3.8063    -0.0000
 30 C      5.8833     6.0000     0.1167     3.7890     3.7890    -0.0000
 31 C      5.9957     6.0000     0.0043     3.8980     3.8980    -0.0000
 32 C      6.3294     6.0000    -0.3294     3.8411     3.8411     0.0000
 33 C      5.6480     6.0000     0.3520     3.8308     3.8308    -0.0000
 34 O      8.5519     8.0000    -0.5519     1.8787     1.8787     0.0000
 35 O      8.5386     8.0000    -0.5386     1.8629     1.8629    -0.0000
 36 C      5.9022     6.0000     0.0978     3.7792     3.7792    -0.0000
 37 C      6.3340     6.0000    -0.3340     3.8342     3.8342     0.0000
 38 C      5.7450     6.0000     0.2550     3.7775     3.7775     0.0000
 39 C      6.3865     6.0000    -0.3865     3.7935     3.7935    -0.0000
 40 C      5.9199     6.0000     0.0801     3.9035     3.9035    -0.0000
 41 C      5.9588     6.0000     0.0412     3.9142     3.9142     0.0000
 42 C      5.7533     6.0000     0.2467     3.8078     3.8078     0.0000
 43 C      5.9972     6.0000     0.0028     3.7581     3.7581     0.0000
 44 C      5.9883     6.0000     0.0117     3.7448     3.7448    -0.0000
 45 C      5.7676     6.0000     0.2324     3.8258     3.8258     0.0000
 46 O      8.6607     8.0000    -0.6607     1.8900     1.8900     0.0000
 47 C      5.6822     6.0000     0.3178     3.8508     3.8508     0.0000
 48 O      8.5465     8.0000    -0.5465     2.0302     2.0302     0.0000
 49 C      5.9496     6.0000     0.0504     3.9312     3.9312    -0.0000
 50 C      5.9779     6.0000     0.0221     3.7980     3.7980     0.0000
 51 C      5.6555     6.0000     0.3445     3.8119     3.8119     0.0000
 52 O      8.5546     8.0000    -0.5546     1.9971     1.9971    -0.0000
 53 C      5.6814     6.0000     0.3186     3.8158     3.8158     0.0000
 54 C      6.2078     6.0000    -0.2078     3.8488     3.8488     0.0000
 55 C      6.1375     6.0000    -0.1375     3.8983     3.8983     0.0000
 56 C      6.1904     6.0000    -0.1904     3.8648     3.8648     0.0000
 57 O      8.4873     8.0000    -0.4873     2.0373     2.0373    -0.0000
 58 C      6.2402     6.0000    -0.2402     3.7236     3.7236    -0.0000
 59 O      8.6651     8.0000    -0.6651     1.8782     1.8782    -0.0000
 60 C      5.5969     6.0000     0.4031     3.7762     3.7762     0.0000
 61 O      8.4715     8.0000    -0.4715     2.0662     2.0662    -0.0000
 62 C      6.0807     6.0000    -0.0807     3.7331     3.7331    -0.0000
 63 O      8.6821     8.0000    -0.6821     1.7889     1.7889    -0.0000
 64 O      8.7016     8.0000    -0.7016     1.7476     1.7476    -0.0000
 65 N      7.7780     7.0000    -0.7780     2.7420     2.7420    -0.0000
 66 O      8.7020     8.0000    -0.7020     1.7598     1.7598    -0.0000
 67 H      0.8446     1.0000     0.1554     0.9448     0.9448     0.0000
 68 H      0.8328     1.0000     0.1672     0.9364     0.9364    -0.0000
 69 H      0.8429     1.0000     0.1571     0.9337     0.9337    -0.0000
 70 H      0.8548     1.0000     0.1452     0.9289     0.9289     0.0000
 71 H      0.8519     1.0000     0.1481     0.9356     0.9356    -0.0000
 72 H      0.8504     1.0000     0.1496     0.9281     0.9281    -0.0000
 73 H      0.8302     1.0000     0.1698     0.9329     0.9329    -0.0000
 74 H      0.8323     1.0000     0.1677     0.9352     0.9352    -0.0000
 75 H      0.8449     1.0000     0.1551     0.9421     0.9421     0.0000
 76 H      0.8233     1.0000     0.1767     0.9351     0.9351    -0.0000
 77 H      0.8213     1.0000     0.1787     0.9340     0.9340    -0.0000
 78 H      0.8300     1.0000     0.1700     0.9450     0.9450    -0.0000
 79 H      0.7986     1.0000     0.2014     0.9225     0.9225     0.0000
 80 H      0.8018     1.0000     0.1982     0.9268     0.9268    -0.0000
 81 H      0.5336     1.0000     0.4664     0.7960     0.7960     0.0000
 82 H      0.8036     1.0000     0.1964     0.9283     0.9283    -0.0000
 83 H      0.8163     1.0000     0.1837     0.9272     0.9272     0.0000
 84 H      0.8274     1.0000     0.1726     0.9452     0.9452    -0.0000
 85 H      0.8167     1.0000     0.1833     0.9229     0.9229     0.0000
 86 H      0.8086     1.0000     0.1914     0.9269     0.9269     0.0000
 87 H      0.8162     1.0000     0.1838     0.9219     0.9219     0.0000
 88 H      0.5292     1.0000     0.4708     0.7906     0.7906    -0.0000
 89 H      0.8024     1.0000     0.1976     0.9170     0.9170    -0.0000
 90 H      0.8086     1.0000     0.1914     0.9268     0.9268    -0.0000
 91 H      0.5572     1.0000     0.4428     0.7959     0.7959    -0.0000
 92 H      0.5456     1.0000     0.4544     0.7669     0.7669     0.0000
 93 H      0.6771     1.0000     0.3229     0.8645     0.8645    -0.0000
 94 H      0.6743     1.0000     0.3257     0.8570     0.8570    -0.0000
 95 H      0.5537     1.0000     0.4463     0.7705     0.7705     0.0000

  Mayer bond orders larger than 0.100000
B(  0-C ,  1-C ) :   0.8984 B(  0-C , 13-C ) :   1.0571 B(  0-C , 16-H ) :   0.9128 
B(  0-C , 25-O ) :   0.8492 B(  1-C ,  2-C ) :   1.0140 B(  1-C , 17-H ) :   0.9121 
B(  1-C , 25-O ) :   0.8663 B(  2-C ,  3-C ) :   1.2966 B(  2-C , 14-C ) :   1.4027 
B(  3-C ,  4-C ) :   1.4834 B(  3-C , 18-H ) :   0.9193 B(  4-C ,  5-C ) :   1.2589 
B(  4-C , 19-H ) :   0.9187 B(  5-C ,  6-C ) :   1.2530 B(  5-C , 15-C ) :   1.2929 
B(  6-C ,  7-C ) :   1.4288 B(  6-C , 20-H ) :   0.9094 B(  7-C ,  8-C ) :   1.2681 
B(  7-C , 26-O ) :   0.9486 B(  8-C ,  9-C ) :   1.4428 B(  8-C , 21-H ) :   0.8921 
B(  9-C , 10-C ) :   1.1293 B(  9-C , 15-C ) :   1.2513 B( 10-C , 11-C ) :   1.6641 
B( 10-C , 22-H ) :   0.8982 B( 11-C , 12-C ) :   1.1253 B( 11-C , 23-H ) :   0.9131 
B( 12-C , 13-C ) :   1.6037 B( 12-C , 14-C ) :   1.1337 B( 13-C , 24-H ) :   0.9036 
B( 14-C , 15-C ) :   1.2592 B( 26-O , 27-H ) :   0.7413 B( 28-C , 29-C ) :   1.0027 
B( 28-C , 67-H ) :   0.9329 B( 28-C , 68-H ) :   0.9353 B( 28-C , 69-H ) :   0.9437 
B( 29-C , 30-C ) :   0.9761 B( 29-C , 34-O ) :   0.8592 B( 29-C , 70-H ) :   0.9267 
B( 30-C , 31-C ) :   0.9631 B( 30-C , 66-O ) :   0.9135 B( 30-C , 71-H ) :   0.9098 
B( 31-C , 32-C ) :   0.9825 B( 31-C , 65-N ) :   1.0203 B( 31-C , 72-H ) :   0.9311 
B( 32-C , 33-C ) :   1.0042 B( 32-C , 73-H ) :   0.9207 B( 32-C , 74-H ) :   0.9274 
B( 33-C , 34-O ) :   0.9283 B( 33-C , 35-O ) :   0.8896 B( 33-C , 75-H ) :   0.9134 
B( 35-O , 36-C ) :   0.8580 B( 36-C , 37-C ) :   0.9713 B( 36-C , 41-C ) :   0.9649 
B( 36-C , 76-H ) :   0.8924 B( 37-C , 38-C ) :   0.9824 B( 37-C , 77-H ) :   0.9142 
B( 37-C , 78-H ) :   0.9139 B( 38-C , 39-C ) :   0.9814 B( 38-C , 60-C ) :   0.8909 
B( 38-C , 64-O ) :   0.8689 B( 39-C , 40-C ) :   0.9584 B( 39-C , 79-H ) :   0.8959 
B( 39-C , 80-H ) :   0.9022 B( 40-C , 41-C ) :   1.5380 B( 40-C , 45-C ) :   1.2394 
B( 41-C , 42-C ) :   1.2285 B( 42-C , 43-C ) :   1.2782 B( 42-C , 59-O ) :   1.0804 
B( 43-C , 44-C ) :   1.2585 B( 43-C , 51-C ) :   1.0364 B( 44-C , 45-C ) :   1.2701 
B( 44-C , 47-C ) :   1.0394 B( 45-C , 46-O ) :   1.1011 B( 46-O , 81-H ) :   0.6156 
B( 47-C , 48-O ) :   1.6225 B( 47-C , 49-C ) :   1.0162 B( 48-O , 81-H ) :   0.1664 
B( 49-C , 50-C ) :   1.3596 B( 49-C , 56-C ) :   1.3886 B( 50-C , 51-C ) :   1.0184 
B( 50-C , 53-C ) :   1.2749 B( 51-C , 52-O ) :   1.5776 B( 52-O , 88-H ) :   0.1752 
B( 53-C , 54-C ) :   1.3318 B( 53-C , 57-O ) :   1.0201 B( 54-C , 55-C ) :   1.4297 
B( 54-C , 82-H ) :   0.9012 B( 55-C , 56-C ) :   1.3906 B( 55-C , 83-H ) :   0.9192 
B( 56-C , 84-H ) :   0.9056 B( 57-O , 58-C ) :   0.8832 B( 58-C , 85-H ) :   0.9253 
B( 58-C , 86-H ) :   0.9418 B( 58-C , 87-H ) :   0.9242 B( 59-O , 88-H ) :   0.6009 
B( 60-C , 61-O ) :   1.8383 B( 60-C , 62-C ) :   0.9649 B( 62-C , 63-O ) :   0.9512 
B( 62-C , 89-H ) :   0.8931 B( 62-C , 90-H ) :   0.8988 B( 63-O , 91-H ) :   0.7023 
B( 64-O , 92-H ) :   0.7423 B( 65-N , 93-H ) :   0.8421 B( 65-N , 94-H ) :   0.8417 
B( 66-O , 95-H ) :   0.7518 

-------
TIMINGS
-------

Total SCF time: 0 days 0 hours 23 min 36 sec 

Total time                  ....    1416.682 sec
Sum of individual times     ....    1358.389 sec  ( 95.9%)

SCF preparation             ....       5.091 sec  (  0.4%)
Fock matrix formation       ....    1346.720 sec  ( 95.1%)
  Startup                   ....       0.086 sec  (  0.0% of F)
  Split-RI-J                ....     181.010 sec  ( 13.4% of F)
  Chain of spheres X        ....     938.028 sec  ( 69.7% of F)
  XC integration            ....      91.209 sec  (  6.8% of F)
    Basis function eval.    ....      30.404 sec  ( 33.3% of XC)
    Density eval.           ....      23.790 sec  ( 26.1% of XC)
    XC-Functional eval.     ....       2.610 sec  (  2.9% of XC)
    XC-Potential eval.      ....      29.940 sec  ( 32.8% of XC)
  CPCM terms                ....     194.173 sec  ( 14.4% of F)
Diagonalization             ....       0.000 sec  (  0.0%)
Density matrix formation    ....       0.563 sec  (  0.0%)
Total Energy calculation    ....       0.199 sec  (  0.0%)
Population analysis         ....       0.283 sec  (  0.0%)
Orbital Transformation      ....       0.801 sec  (  0.1%)
Orbital Orthonormalization  ....       0.000 sec  (  0.0%)
DIIS solution               ....       3.387 sec  (  0.2%)
SOSCF solution              ....       1.345 sec  (  0.1%)
Finished LeanSCF after 1417.5 sec

Maximum memory used throughout the entire LEANSCF-calculation: 418.7 MB


-------------------------------------------------------------------------------
                          DFT DISPERSION CORRECTION                            
                                                                               
                              DFTD3 V3.1  Rev 1                                
                          USING Becke-Johnson damping                          
-------------------------------------------------------------------------------
The B3LYP functional is recognized
Active option DFTDOPT                   ...         4   

molecular C6(AA) [au] = 101764.200206 


            DFT-D V3
 parameters
 s6 scaling factor         :     1.0000 
 a1 scaling factor         :     0.3981 
 s8 scaling factor         :     1.9889 
 a2 scaling factor         :     4.4211 
 ad hoc parameters k1-k3   :    16.0000     1.3333    -4.0000 

 Edisp/kcal,au: -152.778518543880  -0.243468040821 
 E6   /kcal   : -73.369030651 
 E8   /kcal   : -79.409487893 
 % E8         :  51.976867331 

-------------------------   ----------------
Dispersion correction           -0.243468041
-------------------------   ----------------


-------------------------   --------------------
FINAL SINGLE POINT ENERGY     -2693.406550979215
-------------------------   --------------------


------------------------------------------------------------------------------
                              ORCA PROPERTY CALCULATIONS
------------------------------------------------------------------------------

GBWName                                 ... doxorubicin_on_go_solv.gbw
Number of atoms                         ...     96
Number of basis functions               ...    876
Max core memory                         ...    800 MB

Electric properties:
Dipole moment                           ... YES
Quadrupole moment                       ...  NO
Static polarizability (Dipole/Dipole)   ...  NO
Static polarizability (Dipole/Quad.)    ...  NO
Static polarizability (Quad./Quad.)     ...  NO
Static polarizability (Velocity)        ...  NO
Static hyperpolarizability              ...  NO

Atomic electric properties:
Dipole moment                           ...  NO
Quadrupole moment                       ...  NO
Static polarizability                   ...  NO

Choice of electric origin               ... Center of mass
Position of electric origin             ...     8.019075     0.159473    -5.101268

General magnetic properties:
Magnetizability                         ...  NO

EPR properties:
g-Tensor (aka g-matrix)                 ...  NO
Zero-Field splitting spin-orbit         ...  NO
Zero-field splitting spin-spin          ...  NO
Hyperfine couplings                     ...  NO (   0 nuclei)
Quadrupole couplings                    ...  NO (   0 nuclei)
Contact density                         ...  NO (   0 nuclei)

NMR properties:
Chemical shifts                         ...  NO (   0 nuclei)
Spin-rotation constants                 ...  NO (   0 nuclei)
Spin-spin couplings                     ...  NO (   0 nuclei,    0 pairs)

Choice of magnetic origin               ... GIAO
Position of magnetic origin             ...     0.000000     0.000000     0.000000

Properties with geometric perturbations:
SCF Hessian                             ...  NO
IR spectrum                             ...  NO
VCD spectrum                            ...  NO
X-ray spectroscopy properties:
SCF XES/XAS/RIXS spectra                ...  NO

SCF SOC stabilization energy            ...  NO
Diagonal Born-Oppenheimer correction    ...  NO

-------------
DIPOLE MOMENT
-------------

Method             : SCF
Type of density    : Electron Density
Multiplicity       :   1
Irrep              :   0
Energy             : -2693.1630829383943819 Eh
Basis              : AO
                                X                 Y                 Z
Electronic contribution:    -25.258647503      24.952563271      23.452055240
Nuclear contribution   :     25.407722380     -22.697893173     -23.677222911
                        -----------------------------------------
Total Dipole Moment    :      0.149074878       2.254670098      -0.225167671
                        -----------------------------------------
Magnitude (a.u.)       :      2.270784237
Magnitude (Debye)      :      5.771874832



--------------------
Rotational spectrum 
--------------------
 
Rotational constants in cm-1:             0.001963             0.001103             0.000901 
Rotational constants in MHz :            58.858449            33.072981            27.000778 

Dipole components along the rotational axes: 
x,y,z [a.u.] :     0.722164    -1.099255    -1.851102 
x,y,z [Debye]:     1.835595    -2.794083    -4.705128 

 

Dipole moment calculation done in   0.0 sec 

Maximum memory used throughout the entire PROP-calculation: 91.3 MB

--------------------------------
SUGGESTED CITATIONS FOR THIS RUN
--------------------------------

Below you find a list of papers that are relevant to this ORCA run
We neither can nor want to force you to cite these papers, but we appreciate if you do
You receive ORCA, which is the product of decades of hard work by many enthusiastic individuals, for free
The only thing we kindly ask in return is that you cite our papers,
We deeply appreciate it, if you show your appreciation for ORCA by not just citing the generic ORCA reference.

Please note that relegating all ORCA citations to the supporting information does *not* help us.
SI sections are not indexed - citations you put there will not count into any citation statistics
But we need these citations in order to attract the funding resources that allow us to do what we are doing

Therefore, if you are a happy ORCA user, please consider citing a few of the papers listed below in the main body of your paper

In addition to the list printed below, the program has created the file doxorubicin_on_go_solv.bibtex that contains the list in bibtex format
You can import this file easily into all common literature databanks and citation aid programs

It goes without saying that in many instances, there are alternative algorithms to achieve similar
results as the ones you have gotten from ORCA. It is, of course, also the case that in some instances
ORCA just re-implements algorithms worked out by others. We are fully aware of that and we are also
fully appreciative of our colleagues work. Hence this citation list should not be read as indicating
that the listed papers, which are focused on our own work, are the only ones worth citing. It simply
meant to make it easier for users to cite ORCA specific papers. It is not a substitute for doing your
own literature research and citing the relevant literature in a scientifically appropriate manner.

List of essential papers. We consider these as the minimum necessary citations

  1. Neese, F.
     Software update: the ORCA program system, version 6.0
     WIRES Comput. Molec. Sci. 2025 15(1), e70019
     doi.org/10.1002/wcms.70019

List of papers to cite with high priority. The work reported in these papers was absolutely
necessary for this run to complete.
Our perspective: the developers of density functionals and basis sets usually get cited in chemistry papers
Good! But without the algorithms to do something with them, the functionals or basis sets would not do anything.
Hence, in our opinion, the algorithm design and method developments papers are equally worthy of getting cited

  1. Neese, F.
     An improvement of the resolution of the identity approximation for the formation of the Coulomb matrix
     J. Comp. Chem. 2003 24(14), 1740-1747
     doi.org/10.1002/jcc.10318
  2. Neese, F.; Wennmohs, F.; Hansen, A.; Becker, U.
     Efficient, approximate and parallel Hartree-Fock and hybrid DFT calculations. A 'chain-of-spheres' algorithm for the Hartree-Fock exchange
     Chem. Phys. 2009 356(1-3), 98-109
     doi.org/10.1016/j.chemphys.2008.10.036
  3. Grimme, S.; Antony, J.; Ehrlich, S.; Krieg, H.
     A consistent and accurate ab initio parametrization of density functional dispersion correction (DFT-D) for the 94 elements H-Pu
     J. Chem. Phys. 2010 132 , 154104
     doi.org/10.1063/1.3382344
  4. Grimme, S.; Ehrlich, S.; Goerigk, L.
     Effect of the damping function in dispersion corrected density functional theory
     J. Comput. Chem. 2011 32(7), 1456-1465
     doi.org/10.1002/jcc.21759
  5. Garcia-Rates, M.; Neese, F.
     Effect of the Solute Cavity on the Solvation Energy and its Derivatives within the Framework of the Gaussian Charge Scheme
     J. Comput. Chem. 2020 41 , 922-939
     doi.org/10.1002/jcc.26139
  6. Helmich-Paris, B.; de Souza, B.; Neese, F.; Izsák, R.
     An improved chain of spheres for exchange algorithm
     J. Chem. Phys. 2021 155(10), 104109
     doi.org/10.1063/5.0058766
  7. Neese, F.
     The SHARK Integral Generation and Digestion System
     J. Comp. Chem. 2022 44(3), 381
     doi.org/10.1002/jcc.26942

List of suggested additional citations. These are papers that are important in the 'surrounding' of 
of this run, or papers that preceded the highly important papers. If you like your results we are grateful for a citation.

  1. Izsak, R.; Neese, F.
     An overlap fitted chain of spheres exchange method
     J. Chem. Phys. 2011 135 , 144105
     doi.org/10.1063/1.3646921
  2. Izsak, R.; Hansen, A.; Neese, F.
     The resolution of identity and chain of spheres approximations for the LPNO-CCSD singles Fock term
     Molec. Phys. 2012 110 , 2413-2417
     doi.org/10.1080/00268976.2012.687466
  3. Neese, F.
     The ORCA program system
     WIRES Comput. Molec. Sci. 2012 2(1), 73-78
     doi.org/10.1002/wcms.81
  4. Izsak, R.; Neese, F.; Klopper, W.
     Robust fitting techniques in the chain of spheres approximation to the Fock exchange: The role of the complementary space
     J. Chem. Phys. 2013 139 , 
     doi.org/10.1063/1.4819264
  5. Neese, F.
     Software update: the ORCA program system, version 4.0
     WIRES Comput. Molec. Sci. 2018 8(1), 1-6
     doi.org/10.1002/wcms.1327
  6. Neese, F.; Wennmohs, F.; Becker, U.; Riplinger, C.
     The ORCA quantum chemistry program package
     J. Chem. Phys. 2020 152(22), 224108
     doi.org/10.1063/5.0004608
  7. Neese, F.
     Software update: The ORCA program system—Version 5.0
     WIRES Comput. Molec. Sci. 2022 12(1), e1606
     doi.org/10.1002/wcms.1606

List of optional additional citations

  1. Neese, F.
     Approximate second-order SCF convergence for spin unrestricted wavefunctions
     Chem. Phys. Lett. 2000 325(1-3), 93-98
     doi.org/10.1016/s0009-2614(00)00662-x

Timings for individual modules:

Sum of individual times          ...     1466.958 sec (=  24.449 min)
Startup calculation              ...       31.029 sec (=   0.517 min)   2.1 %
SCF iterations                   ...     1435.458 sec (=  23.924 min)  97.9 %
Property calculations            ...        0.471 sec (=   0.008 min)   0.0 %
                             ****ORCA TERMINATED NORMALLY****
TOTAL RUN TIME: 0 days 0 hours 24 minutes 27 seconds 665 msec
