
                                 *****************
                                 * O   R   C   A *
                                 *****************

                                            #,                                       
                                            ###                                      
                                            ####                                     
                                            #####                                    
                                            ######                                   
                                           ########,                                 
                                     ,,################,,,,,                         
                               ,,#################################,,                 
                          ,,##########################################,,             
                       ,#########################################, ''#####,          
                    ,#############################################,,   '####,        
                  ,##################################################,,,,####,       
                ,###########''''           ''''###############################       
              ,#####''   ,,,,##########,,,,          '''####'''          '####       
            ,##' ,,,,###########################,,,                        '##       
           ' ,,###''''                  '''############,,,                           
         ,,##''                                '''############,,,,        ,,,,,,###''
      ,#''                                            '''#######################'''  
     '                                                          ''''####''''         
             ,#######,   #######,   ,#######,      ##                                
            ,#'     '#,  ##    ##  ,#'     '#,    #''#        ,####,    ,#,          
            ##       ##  ##   ,#'  ##            #'  '#       #'       ,# #          
            ##       ##  #######   ##           ,######,      #####,      #          
            '#,     ,#'  ##    ##  '#,     ,#' ,#      #,     #,   #      #          
             '#######'   ##     ##  '#######'  #'      '#     '####' #    #          



                #########################################################
                #                        -***-                          #
                #          Department of theory and spectroscopy        #
                #                                                       #
                #                      Frank Neese                      #
                #                                                       #
                #     Directorship, Architecture, Infrastructure        #
                #                    SHARK, DRIVERS                     #
                #        Core code/Algorithms in most modules           #
                #                                                       #
                #        Max Planck Institute fuer Kohlenforschung      #
                #                Kaiser Wilhelm Platz 1                 #
                #                 D-45470 Muelheim/Ruhr                 #
                #                      Germany                          #
                #                                                       #
                #                  All rights reserved                  #
                #                        -***-                          #
                #########################################################


                         Program Version 6.1.1  -  RELEASE   -


 With contributions from (in alphabetic order):
[Max-Planck-Institut fuer Kohlenforschung]                               
  Daniel Aravena         : Magnetic Suceptibility                        
  Michael Atanasov       : Ab Initio Ligand Field Theory (pilot matlab implementation)
  Alexander A. Auer      : GIAO ZORA, VPT2 properties, NMR spectrum      
  Ute Becker             : All parallelization in ORCA, NUMFREQ, NUMCALC 
  Giovanni Bistoni       : ED, misc. LED, open-shell LED, HFLD           
  Dmytro Bykov           : pre 5.0 version of the SCF Hessian            
  Marcos Casanova-Páez   : Triplet and SCS-CIS(D). UHF-(DLPNO)-IP/EA/STEOM-CCSD. UHF-CVS-IP/STEOM-CCSD   
  Vijay G. Chilkuri      : MRCI spin determinant printing, contributions to CSF-ICE 
  Pauline Colinet        : FMM embedding                                 
  Dipayan Datta          : RHF DLPNO-CCSD density                        
  Achintya Kumar Dutta   : EOM-CC, STEOM-CC                              
  Nicolas Foglia         : Exact transition moments, OPA infrastructure, MCD improvements    
  Dmitry Ganyushin       : Spin-Orbit,Spin-Spin,Magnetic field MRCI      
  Miquel Garcia-Rates    : C-PCM and meta-GGA Hessian, CCSD/C-PCM, Gaussian charge scheme 
  Tiago L. C. Gouveia    : GS-ROHF, GS-ROCIS                             
  Yang Guo               : DLPNO-NEVPT2, F12-NEVPT2, CIM, IAO-localization        
  Andreas Hansen         : Spin unrestricted coupled pair/coupled cluster methods 
  Ingolf Harden          : AUTO-CI MPn and infrastructure                
  Benjamin Helmich-Paris : MC-RPA, TRAH-(SCF,CASSCF), AVAS, COSX integrals, SCF dyn. polar., MC-PDFT, srDFT 
  Lee Huntington         : MR-EOM, pCC                                   
  Robert Izsak           : Overlap fitted RIJCOSX, COSX-SCS-MP3, EOM     
  Riya Kayal             : Wick's Theorem for AUTO-CI, AUTO-CI UHF-CCSDT 
  Emily Kempfer          : AUTO-CI RHF CISDT and CCSDT, approximate NEVPT4
  Christian Kollmar      : KDIIS, OOCD, Brueckner-CCSD(T), CCSD density, CASPT2, CASPT2-K, improved NEVPT2 
  Axel Koslowski         : Symmetry handling                             
  Simone Kossmann        : meta-GGA functionals, TD-DFT gradient, OOMP2, (MP2 Hessian; deprecated post 5.0) 
  Lucas Lang             : DCDCAS, Hyperfine gauge corrections, ICE-SOC+SSC
  Marvin Lechner         : AUTO-CI (C++ implementation), FIC-MRCC        
  Spencer Leger          : CASSCF response                               
  Dagmar Lenk            : GEPOL surface, SMD, ORCA-2-JSON               
  Dimitrios Liakos       : Extrapolation schemes; Compound Job, Property file
  Dimitrios Manganas     : Further ROCIS development; embedding schemes. LFT, Crystal Embedding 
  Dimitrios Pantazis     : SARC Basis sets                               
  Anastasios Papadopoulos: AUTO-CI, single reference methods and gradients 
  Taras Petrenko         : pre 6.0 DFT Hessian and TD-DFT gradient,  ECA, NRVS 
  Petra Pikulova         : Analytic Raman intensities                    
  Peter Pinski           : DLPNO-MP2, DLPNO-MP2 Gradient                 
  Shashank Vittal Rao    : ES-AILFT, MagRelax                            
  Christoph Reimann      : Effective Core Potentials                     
  Marius Retegan         : Local ZFS, SOC                                
  Christoph Riplinger    : Optimizer, TS searches, QM/MM, DLPNO-CCSD(T), (RO)-DLPNO pert. Triples 
  Michael Roemelt        : Original ROCIS implementation, recursive CI coupling coefficients
  Masaaki Saitow         : Open-shell DLPNO-CCSD energy and density      
  Barbara Sandhoefer     : DKH picture change effects                    
  Yorick L. A. Schmerwitz: GMF and freeze-and-release deltaSCF, NEB S-IDPP initial path                    
  Kantharuban Sivalingam : CASSCF convergence/infrastructure, NEVPT2, NEVPT3, NEVPT4(SD), FIC-MRCI and CEPA variants
  Bernardo de Souza      : ESD, SOC TD-DFT                               
  Georgi L. Stoychev     : AutoAux, RI-MP2 NMR, DLPNO-MP2 response, X2C  
  Van Anh Tran           : RI-MP2 g-tensors                              
  Willem Van den Heuvel  : Paramagnetic NMR                              
  Zikuan Wang            : NOTCH, Electric field optimization            
  Frank Wennmohs         : Technical directorship and infrastructure     
  Hang Xu                : AUTO-CI-Response properties                   
                                                                         
[FACCTs GmbH]                                                            
  Markus Bursch, Nicolas Foglia, Miquel Garcia-Rates, Ingolf Harden, Hagen Neugebauer, Anastasios Papadopoulos, 
  Christoph Riplinger, Bernardo de Souza, Georgi L. Stoychev                                                    
                                                                 
  APM, various basis sets, CI-OPT, improved COSX, DLPNO-Multilevel,           
  DOCKER, DRACO, updates on ESD, Fragmentator, GOAT, IRC, LR-CPCM, L-BFGS, MBIS, meta-GGA TD-DFT gradient, ML-optimized integration grids, 
  MM, NACMEs, nearIR, NEB, NEB-TS, NL-DFT gradient (VV10), 2- and 3-layer-ONIOM, interface openCOSMO-RS, QMMM,   
  Crystal-QMMM, RESP, rigid body optimization, SF, symmetry and pop. for TD-DFT, various functionals, SOLVATOR                                   
                                                                         
[Other institutions]                                                     
  V. Asgeirsson          : NEB                                           
  Christoph Bannwarth    : sTDA-DFT, sTD-DFT, PBEh-3c, B97-3c, D3        
  Giovanni Bistoni       : ETS/NOCV, ADLD/ADEX, COVALED                  
  Martin Brehm           : Molecular dynamics                            
  Ronald Cardenas        : ETS/NOCV                                      
  Martina Colucci        : COVALED                                       
  Sebastian Ehlert       : rSCAN, r2SCAN, r2SCAN-3c, D4, dhf basis sets  
  Marvin Friede          : D4 for Fr, Ra, Ac-Lr                          
  Lars Goerigk           : TD-DFT with DH, B97 family of functionals     
  Stefan Grimme          : VdW corrections, initial TS optimization, DFT functionals, gCP, sTDA/sTD-DF 
  Waldemar Hujo          : DFT-NL                                        
  H. Jonsson             : NEB                                           
  Holger Kruse           : gCP                                           
  Marcel Mueller         : wB97X-3c, vDZP basis set                      
  Hagen Neugebauer       : wr2SCAN, Native XTB                           
  Gianluca Regni         : ADLD/ADEX                                     
  Tobias Risthaus        : pre 6.0 range-separated hybrid DFT and stability analysis
  Lukas Wittmann         : regularized MP2, r2SCAN double-hybrids, wr2SCAN        
                                                                         
We gratefully acknowledge several colleagues who have allowed us to      
interface, adapt or use parts of their codes:                            
  Ed Valeev, F. Pavosevic, A. Kumar             : LibInt (2-el integral package), F12 methods 
  Garnet Chan, S. Sharma, J. Yang, R. Olivares  : DMRG                   
  Ulf Ekstrom                                   : XCFun DFT Library      
  Mihaly Kallay                                 : mrcc  (arbitrary order and MRCC methods)
  Frank Weinhold                                : gennbo (NPA and NBO analysis)           
  Simon Mueller                                 : openCOSMO-RS                            
  Christopher J. Cramer and Donald G. Truhlar   : smd solvation model                     
  S Lehtola, MJT Oliveira, MAL Marques          : LibXC Library                           
  Liviu Ungur et al                             : ANISO software                          


 Your calculation uses the libint2 library for the computation of 2-el integrals
 For citations please refer to: http://libint.valeyev.net

 Your ORCA version has been built with support for libXC version: 7.0.0
 For citations please refer to: https://libxc.gitlab.io

 This ORCA versions uses:
   CBLAS   interface :  Fast vector & matrix operations
   LAPACKE interface :  Fast linear algebra routines
   Shared memory     :  Shared parallel matrices


  ***********************************
  * Starting time: Sun Aug 30 05:28:33 2026
  * Host name:     DESKTOP-VL9OK5A
  * Process ID:    11232
  * Working dir.:  C:\Users\hafiz\Desktop
  ***********************************

Warning: RI is on but no J-basis has been assigned. Assigning Def2/J (nothing to worry about!)
================================================================================

----- Orbital basis set information -----
Your calculation utilizes the basis: 6-31G*
   H-He, Li-Ne : W. J. Hehre, R. Ditchfield and J.A. Pople, J. Chem. Phys. 56, 2257 (1972).
                 Note: He and Ne are unpublished basis sets taken from the Gaussian program.
                 Note: Li and B from J. D. Dill and J. A. Pople, J. Chem. Phys. 62, 2921 (1975).
   Na - Ar     : M. M. Francl, W. J. Pietro, W. J. Hehre, J. S. Binkley, M. S. Gordon, 
                 D. J. DeFrees and J. A. Pople, J. Chem. Phys. 77, 3654 (1982).
   Sc - Zn     : V. A. Rassolov, J. A. Pople, M. A. Ratner, and T. L. Windus, J. Chem. Phys. 109, 1223 (1998).
   K,Ca,Ga-Kr  : V.A. Rassolov, M.A. Ratner, J.A. Pople, P.C. Redfern, and L.A. Curtiss, J. Comput. Chem. 22, 976 (2001).
----- AuxJ basis set information -----
Your calculation utilizes the auxiliary basis: def2/J
   H-Rn: F. Weigend, Phys. Chem. Chem. Phys. 8, 1057 (2006).
   Fr-Lr: K. Eichkorn, F. Weigend, O. Treutler, R. Ahlrichs; Theor. Chem. Acc. 97, 119 (1997).

================================================================================
                                        WARNINGS
                       Please study these warnings very carefully!
================================================================================


WARNING: Geometry Optimization
  ===> : Switching off AutoStart
         For restart on a previous wavefunction, please use MOREAD

================================================================================
                                       INPUT FILE
================================================================================
NAME = curcumin.inp
|  1> ! B3LYP 6-31G* Opt
|  2> 
|  3> * xyz 0 1
|  4> C      -0.0129777    -8.0255278     2.6679719
|  5> O       0.3064957    -8.1532637     1.2903289
|  6> C       0.5025548    -7.0008825     0.5753357
|  7> C       0.4296033    -5.7060229     1.1012462
|  8> C       0.6579034    -4.5834715     0.2881576
|  9> C       0.5453147    -3.2448792     0.8834999
| 10> C       1.3550874    -2.2227039     0.5709224
| 11> C       1.1755155    -0.8965815     1.2259452
| 12> O       0.2547899    -0.6810339     2.0121002
| 13> C       2.1457799     0.1870270     0.8509297
| 14> C       1.6994873     0.9216831    -0.3807924
| 15> O       2.1350138     0.6242313    -1.4915193
| 16> C       0.6812473     1.9938920    -0.1970061
| 17> C       0.2454104     2.7004552    -1.2500931
| 18> C      -0.7554052     3.7715910    -1.1513562
| 19> C      -0.6008614     4.9101388    -1.9512145
| 20> C      -1.5389935     5.9420467    -1.9040333
| 21> C      -2.6436084     5.8298609    -1.0615355
| 22> O      -3.5649520     6.8420863    -1.0122915
| 23> C      -2.8323669     4.6929097    -0.2642512
| 24> O      -3.9576866     4.6830557     0.5177586
| 25> C      -4.1867433     3.5382909     1.3264564
| 26> C      -1.8840106     3.6650212    -0.3208867
| 27> C       0.9338564    -4.7697916    -1.0722557
| 28> C       1.0086851    -6.0558881    -1.6091792
| 29> C       0.7967041    -7.1600510    -0.7854130
| 30> O       0.8705810    -8.4227277    -1.3108112
| 31> H       0.8024263    -7.5462607     3.2196613
| 32> H      -0.9560086    -7.4866693     2.8070392
| 33> H      -0.1428545    -9.0324734     3.0762251
| 34> H       0.2032511    -5.5458042     2.1506925
| 35> H      -0.2377749    -3.1200715     1.6300924
| 36> H       2.1592079    -2.3122225    -0.1507203
| 37> H       3.1428193    -0.2347995     0.6817611
| 38> H       2.2557429     0.8832576     1.6898872
| 39> H       0.3229562     2.1651202     0.8120052
| 40> H       0.6458455     2.5122429    -2.2452502
| 41> H       0.2575518     5.0069801    -2.6129348
| 42> H      -1.3936392     6.8186688    -2.5273026
| 43> H      -3.2996883     7.5444940    -1.6252337
| 44> H      -3.3855589     3.4066862     2.0611523
| 45> H      -5.1187771     3.6985591     1.8769936
| 46> H      -4.3136358     2.6401647     0.7130734
| 47> H      -2.0151278     2.7634008     0.2679584
| 48> H       1.0805535    -3.9184071    -1.7330095
| 49> H       1.2256936    -6.1763623    -2.6659123
| 50> H       1.0664930    -8.3627774    -2.2581960
| 51> *
| 52> 
| 53>                          ****END OF INPUT****
================================================================================

                       *****************************
                       * Geometry Optimization Run *
                       *****************************

Geometry optimization settings:
Update method            Update   .... BFGS
Choice of coordinates    CoordSys .... (2022) Redundant Internals
Initial Hessian          InHess   .... Almloef's Model
Max. no of cycles        MaxIter  .... 141

Convergence Tolerances:
Energy Change            TolE     ....  5.0000e-06 Eh
Max. Gradient            TolMAXG  ....  3.0000e-04 Eh/bohr
RMS Gradient             TolRMSG  ....  1.0000e-04 Eh/bohr
Max. Displacement        TolMAXD  ....  4.0000e-03 bohr
RMS Displacement         TolRMSD  ....  2.0000e-03 bohr
Strict Convergence                .... False

------------------------------------------------------------------------------
                        ORCA OPTIMIZATION COORDINATE SETUP
------------------------------------------------------------------------------

The optimization will be done in redundant internal coordinates (2022)
Making redundant internal coordinates   ...  (2022 redundants) done
Evaluating the initial hessian          ...  (Almloef) done
Evaluating the coordinates              ...  done
Calculating the B-matrix                .... done
Calculating the G-matrix                .... done
The number of degrees of freedom        ....  220

    -----------------------------------------------------------------
                    Redundant Internal Coordinates


    -----------------------------------------------------------------
         Definition                    Initial Value    Approx d2E/dq
    -----------------------------------------------------------------
      1. B(O   1,C   0)                  1.4200         0.501279   
      2. B(C   2,O   1)                  1.3703         0.601666   
      3. B(C   3,C   2)                  1.3995         0.603395   
      4. B(C   4,C   3)                  1.4048         0.591817   
      5. B(C   5,C   4)                  1.4693         0.466841   
      6. B(C   6,C   5)                  1.3410         0.748025   
      7. B(C   7,C   6)                  1.4899         0.432814   
      8. B(O   8,C   7)                  1.2297         1.008268   
      9. B(C   9,C   7)                  1.5021         0.413919   
     10. B(C  10,C   9)                  1.5020         0.414031   
     11. B(O  11,C  10)                  1.2296         1.008812   
     12. B(C  12,C  10)                  1.4900         0.432643   
     13. B(C  13,C  12)                  1.3410         0.748129   
     14. B(C  14,C  13)                  1.4693         0.466972   
     15. B(C  15,C  14)                  1.4000         0.602301   
     16. B(C  16,C  15)                  1.3954         0.612516   
     17. B(C  17,C  16)                  1.3938         0.616229   
     18. B(O  18,C  17)                  1.3696         0.603069   
     19. B(C  19,C  17)                  1.4014         0.599149   
     20. B(O  20,C  19)                  1.3704         0.601388   
     21. B(C  21,O  20)                  1.4202         0.500848   
     22. B(C  22,C  19)                  1.3997         0.602939   
     23. B(C  22,C  14)                  1.4053         0.590710   
     24. B(C  23,C   4)                  1.4006         0.601006   
     25. B(C  24,C  23)                  1.3957         0.611888   
     26. B(C  25,C  24)                  1.3938         0.616116   
     27. B(C  25,C   2)                  1.4012         0.599506   
     28. B(O  26,C  25)                  1.3696         0.603106   
     29. B(H  27,C   0)                  1.0950         0.353595   
     30. B(H  28,C   0)                  1.0950         0.353552   
     31. B(H  29,C   0)                  1.0943         0.354465   
     32. B(H  30,C   3)                  1.0855         0.366144   
     33. B(H  31,C   5)                  1.0891         0.361251   
     34. B(H  32,C   6)                  1.0842         0.367916   
     35. B(H  33,C   9)                  1.0957         0.352588   
     36. B(H  34,C   9)                  1.0958         0.352567   
     37. B(H  35,C  12)                  1.0843         0.367664   
     38. B(H  36,C  13)                  1.0891         0.361310   
     39. B(H  37,C  15)                  1.0882         0.362522   
     40. B(H  38,C  16)                  1.0854         0.366258   
     41. B(H  39,O  18)                  0.9692         0.502590   
     42. B(H  40,C  21)                  1.0950         0.353564   
     43. B(H  41,C  21)                  1.0943         0.354473   
     44. B(H  42,C  21)                  1.0950         0.353578   
     45. B(H  43,C  22)                  1.0848         0.367009   
     46. B(H  44,C  23)                  1.0876         0.363229   
     47. B(H  45,C  24)                  1.0855         0.366114   
     48. B(H  46,O  26)                  0.9693         0.502520   
     49. A(O   1,C   0,H  28)          111.1770         0.337409   
     50. A(H  27,C   0,H  28)          111.2201         0.289175   
     51. A(H  28,C   0,H  29)          107.6519         0.289286   
     52. A(H  27,C   0,H  29)          107.6485         0.289292   
     53. A(O   1,C   0,H  29)          107.8113         0.337555   
     54. A(O   1,C   0,H  27)          111.1406         0.337416   
     55. A(C   0,O   1,C   2)          117.5666         0.410278   
     56. A(O   1,C   2,C   3)          125.0698         0.426827   
     57. A(O   1,C   2,C  25)          116.1815         0.426333   
     58. A(C   3,C   2,C  25)          118.7486         0.429353   
     59. A(C   4,C   3,H  30)          118.3945         0.351130   
     60. A(C   2,C   3,H  30)          120.7141         0.352282   
     61. A(C   2,C   3,C   4)          120.8893         0.428360   
     62. A(C   3,C   4,C  23)          119.2046         0.428055   
     63. A(C   3,C   4,C   5)          118.7525         0.409213   
     64. A(C   5,C   4,C  23)          121.9956         0.410332   
     65. A(C   4,C   5,H  31)          115.9279         0.336673   
     66. A(C   4,C   5,C   6)          123.6219         0.426648   
     67. A(C   6,C   5,H  31)          120.4383         0.364562   
     68. A(C   5,C   6,H  32)          122.6902         0.365705   
     69. A(C   7,C   6,H  32)          117.0981         0.333476   
     70. A(C   5,C   6,C   7)          120.2112         0.420914   
     71. A(O   8,C   7,C   9)          121.1174         0.437655   
     72. A(C   6,C   7,C   9)          117.0313         0.379306   
     73. A(C   6,C   7,O   8)          121.8232         0.441195   
     74. A(H  33,C   9,H  34)          105.7534         0.288920   
     75. A(C   7,C   9,H  34)          109.3927         0.328695   
     76. A(C   7,C   9,C  10)          111.4479         0.376405   
     77. A(C  10,C   9,H  34)          110.2981         0.328710   
     78. A(C   7,C   9,H  33)          110.4010         0.328698   
     79. A(C  10,C   9,H  33)          109.3936         0.328713   
     80. A(O  11,C  10,C  12)          121.8400         0.441207   
     81. A(C   9,C  10,C  12)          116.9916         0.379298   
     82. A(C   9,C  10,O  11)          121.1454         0.437719   
     83. A(C  10,C  12,H  35)          117.0137         0.333416   
     84. A(C  13,C  12,H  35)          122.6951         0.365671   
     85. A(C  10,C  12,C  13)          120.2913         0.420894   
     86. A(C  14,C  13,H  36)          115.9667         0.336697   
     87. A(C  12,C  13,H  36)          120.4662         0.364581   
     88. A(C  12,C  13,C  14)          123.5560         0.426680   
     89. A(C  15,C  14,C  22)          119.2073         0.428077   
     90. A(C  13,C  14,C  22)          122.1063         0.409098   
     91. A(C  13,C  14,C  15)          118.6399         0.410509   
     92. A(C  16,C  15,H  37)          119.0189         0.352584   
     93. A(C  14,C  15,H  37)          120.4567         0.351583   
     94. A(C  14,C  15,C  16)          120.5224         0.430870   
     95. A(C  17,C  16,H  38)          121.2158         0.353558   
     96. A(C  15,C  16,H  38)          119.1973         0.353197   
     97. A(C  15,C  16,C  17)          119.5869         0.432644   
     98. A(O  18,C  17,C  19)          119.2435         0.426466   
     99. A(C  16,C  17,C  19)          121.0609         0.430932   
    100. A(C  16,C  17,O  18)          119.6952         0.428619   
    101. A(C  17,O  18,H  39)          109.1926         0.366220   
    102. A(O  20,C  19,C  22)          125.0426         0.426734   
    103. A(C  17,C  19,C  22)          118.7838         0.429249   
    104. A(C  17,C  19,O  20)          116.1733         0.426252   
    105. A(C  19,O  20,C  21)          117.5925         0.410182   
    106. A(H  41,C  21,H  42)          107.6531         0.289291   
    107. A(H  40,C  21,H  42)          111.2274         0.289175   
    108. A(H  40,C  21,H  41)          107.6520         0.289289   
    109. A(O  20,C  21,H  41)          107.8061         0.337507   
    110. A(O  20,C  21,H  40)          111.1576         0.337363   
    111. A(O  20,C  21,H  42)          111.1531         0.337365   
    112. A(C  14,C  22,C  19)          120.8220         0.428158   
    113. A(C  19,C  22,H  43)          120.4304         0.352378   
    114. A(C  14,C  22,H  43)          118.7426         0.351159   
    115. A(C   4,C  23,C  24)          120.4525         0.430625   
    116. A(C  24,C  23,H  44)          118.7098         0.352639   
    117. A(C   4,C  23,H  44)          120.8326         0.351571   
    118. A(C  25,C  24,H  45)          121.1877         0.353524   
    119. A(C  23,C  24,H  45)          119.1765         0.353112   
    120. A(C  23,C  24,C  25)          119.6348         0.432550   
    121. A(C  24,C  25,O  26)          119.6969         0.428610   
    122. A(C   2,C  25,O  26)          119.2464         0.426516   
    123. A(C   2,C  25,C  24)          121.0561         0.430964   
    124. A(C  25,O  26,H  46)          109.1974         0.366215   
    125. D(C   2,O   1,C   0,H  27)    -62.7436         0.019869   
    126. D(C   2,O   1,C   0,H  28)     61.7267         0.019869   
    127. D(C   2,O   1,C   0,H  29)    179.5039         0.019869   
    128. D(C   3,C   2,O   1,C   0)      0.8800         0.026449   
    129. D(C  25,C   2,O   1,C   0)   -179.0869         0.026449   
    130. D(H  30,C   3,C   2,C  25)    179.9560         0.025115   
    131. D(C   4,C   3,C   2,C  25)     -0.5717         0.025115   
    132. D(H  30,C   3,C   2,O   1)     -0.0101         0.025115   
    133. D(C   4,C   3,C   2,O   1)    179.4622         0.025115   
    134. D(C  23,C   4,C   3,C   2)      1.3559         0.024111   
    135. D(C  23,C   4,C   3,H  30)   -179.1599         0.024111   
    136. D(C   5,C   4,C   3,H  30)     -1.6119         0.024111   
    137. D(C   5,C   4,C   3,C   2)    178.9038         0.024111   
    138. D(C   6,C   5,C   4,C   3)    142.0691         0.014842   
    139. D(C   6,C   5,C   4,C  23)    -40.4547         0.014842   
    140. D(H  31,C   5,C   4,C   3)    -36.6753         0.014842   
    141. D(H  31,C   5,C   4,C  23)    140.8009         0.014842   
    142. D(H  32,C   6,C   5,C   4)     -0.0201         0.039884   
    143. D(H  32,C   6,C   5,H  31)    178.6701         0.039884   
    144. D(C   7,C   6,C   5,H  31)     -1.0835         0.039884   
    145. D(C   7,C   6,C   5,C   4)   -179.7737         0.039884   
    146. D(C   9,C   7,C   6,H  32)     -1.4125         0.012794   
    147. D(C   9,C   7,C   6,C   5)    178.3546         0.012794   
    148. D(O   8,C   7,C   6,H  32)    176.6788         0.012794   
    149. D(O   8,C   7,C   6,C   5)     -3.5541         0.012794   
    150. D(H  34,C   9,C   7,C   6)   -151.6048         0.012681   
    151. D(H  33,C   9,C   7,O   8)    146.2664         0.012681   
    152. D(H  33,C   9,C   7,C   6)    -35.6279         0.012681   
    153. D(C  10,C   9,C   7,O   8)    -91.9477         0.012681   
    154. D(C  10,C   9,C   7,C   6)     86.1581         0.012681   
    155. D(O  11,C  10,C   9,C   7)    -96.5372         0.012687   
    156. D(C  12,C  10,C   9,H  33)   -155.8857         0.012687   
    157. D(C  12,C  10,C   9,C   7)     81.7466         0.012687   
    158. D(O  11,C  10,C   9,H  34)    141.7491         0.012687   
    159. D(O  11,C  10,C   9,H  33)     25.8305         0.012687   
    160. D(H  35,C  12,C  10,C   9)     -0.6185         0.012784   
    161. D(H  35,C  12,C  10,O  11)    177.6526         0.012784   
    162. D(C  13,C  12,C  10,C   9)    179.3591         0.012784   
    163. D(C  13,C  12,C  10,O  11)     -2.3699         0.012784   
    164. D(H  36,C  13,C  12,H  35)    178.6910         0.039896   
    165. D(H  36,C  13,C  12,C  10)     -1.2852         0.039896   
    166. D(C  14,C  13,C  12,H  35)     -0.0440         0.039896   
    167. D(C  14,C  13,C  12,C  10)    179.9798         0.039896   
    168. D(C  22,C  14,C  13,C  12)    -40.4946         0.014850   
    169. D(C  22,C  14,C  13,H  36)    140.7182         0.014850   
    170. D(C  15,C  14,C  13,C  12)    142.0052         0.014850   
    171. D(C  15,C  14,C  13,H  36)    -36.7820         0.014850   
    172. D(H  37,C  15,C  14,C  22)   -179.0781         0.025019   
    173. D(H  37,C  15,C  14,C  13)     -1.5039         0.025019   
    174. D(C  16,C  15,C  14,C  22)      1.4400         0.025019   
    175. D(C  16,C  15,C  14,C  13)    179.0142         0.025019   
    176. D(H  38,C  16,C  15,H  37)      0.0052         0.025924   
    177. D(H  38,C  16,C  15,C  14)    179.4945         0.025924   
    178. D(C  17,C  16,C  15,H  37)    179.9435         0.025924   
    179. D(C  17,C  16,C  15,C  14)     -0.5672         0.025924   
    180. D(C  19,C  17,C  16,H  38)    179.6051         0.026258   
    181. D(C  19,C  17,C  16,C  15)     -0.3319         0.026258   
    182. D(O  18,C  17,C  16,H  38)     -0.1405         0.026258   
    183. D(O  18,C  17,C  16,C  15)    179.9225         0.026258   
    184. D(H  39,O  18,C  17,C  19)   -179.2220         0.026580   
    185. D(H  39,O  18,C  17,C  16)      0.5282         0.026580   
    186. D(O  20,C  19,C  17,O  18)      0.2707         0.024743   
    187. D(O  20,C  19,C  17,C  16)   -179.4761         0.024743   
    188. D(C  22,C  19,C  17,O  18)   -179.9220         0.024743   
    189. D(C  22,C  19,C  17,C  16)      0.3313         0.024743   
    190. D(C  21,O  20,C  19,C  22)     -0.5013         0.026423   
    191. D(C  21,O  20,C  19,C  17)    179.2925         0.026423   
    192. D(H  42,C  21,O  20,C  19)    -62.1798         0.019834   
    193. D(H  41,C  21,O  20,C  19)   -179.9417         0.019834   
    194. D(H  40,C  21,O  20,C  19)     62.2951         0.019834   
    195. D(H  43,C  22,C  19,O  20)      1.1720         0.025075   
    196. D(H  43,C  22,C  19,C  17)   -178.6168         0.025075   
    197. D(C  14,C  22,C  19,O  20)   -179.6463         0.025075   
    198. D(C  14,C  22,C  19,C  17)      0.5649         0.025075   
    199. D(H  43,C  22,C  14,C  15)    177.7528         0.024016   
    200. D(H  43,C  22,C  14,C  13)      0.2663         0.024016   
    201. D(C  19,C  22,C  14,C  15)     -1.4424         0.024016   
    202. D(C  19,C  22,C  14,C  13)   -178.9290         0.024016   
    203. D(H  44,C  23,C   4,C   5)      0.3933         0.024905   
    204. D(H  44,C  23,C   4,C   3)    177.8584         0.024905   
    205. D(C  24,C  23,C   4,C   5)   -178.7774         0.024905   
    206. D(C  24,C  23,C   4,C   3)     -1.3122         0.024905   
    207. D(H  45,C  24,C  23,H  44)      0.9287         0.025867   
    208. D(H  45,C  24,C  23,C   4)   -179.8832         0.025867   
    209. D(C  25,C  24,C  23,H  44)   -178.6938         0.025867   
    210. D(C  25,C  24,C  23,C   4)      0.4943         0.025867   
    211. D(O  26,C  25,C  24,H  45)      0.4223         0.026247   
    212. D(O  26,C  25,C  24,C  23)   -179.9630         0.026247   
    213. D(C   2,C  25,C  24,H  45)   -179.3065         0.026247   
    214. D(C   2,C  25,C  24,C  23)      0.3082         0.026247   
    215. D(O  26,C  25,C   2,C   3)   -179.9988         0.024774   
    216. D(O  26,C  25,C   2,O   1)     -0.0298         0.024774   
    217. D(C  24,C  25,C   2,C   3)     -0.2688         0.024774   
    218. D(C  24,C  25,C   2,O   1)    179.7003         0.024774   
    219. D(H  46,O  26,C  25,C  24)     -0.6212         0.026584   
    220. D(H  46,O  26,C  25,C   2)    179.1125         0.026584   
    -----------------------------------------------------------------

Number of atoms                         .... 47
Number of degrees of freedom            .... 220


         *************************************************************
         *                GEOMETRY OPTIMIZATION CYCLE   1            *
         *************************************************************
---------------------------------
CARTESIAN COORDINATES (ANGSTROEM)
---------------------------------
  C     -0.012978   -8.025528    2.667972
  O      0.306496   -8.153264    1.290329
  C      0.502555   -7.000883    0.575336
  C      0.429603   -5.706023    1.101246
  C      0.657903   -4.583471    0.288158
  C      0.545315   -3.244879    0.883500
  C      1.355087   -2.222704    0.570922
  C      1.175515   -0.896582    1.225945
  O      0.254790   -0.681034    2.012100
  C      2.145780    0.187027    0.850930
  C      1.699487    0.921683   -0.380792
  O      2.135014    0.624231   -1.491519
  C      0.681247    1.993892   -0.197006
  C      0.245410    2.700455   -1.250093
  C     -0.755405    3.771591   -1.151356
  C     -0.600861    4.910139   -1.951214
  C     -1.538993    5.942047   -1.904033
  C     -2.643608    5.829861   -1.061535
  O     -3.564952    6.842086   -1.012291
  C     -2.832367    4.692910   -0.264251
  O     -3.957687    4.683056    0.517759
  C     -4.186743    3.538291    1.326456
  C     -1.884011    3.665021   -0.320887
  C      0.933856   -4.769792   -1.072256
  C      1.008685   -6.055888   -1.609179
  C      0.796704   -7.160051   -0.785413
  O      0.870581   -8.422728   -1.310811
  H      0.802426   -7.546261    3.219661
  H     -0.956009   -7.486669    2.807039
  H     -0.142854   -9.032473    3.076225
  H      0.203251   -5.545804    2.150692
  H     -0.237775   -3.120071    1.630092
  H      2.159208   -2.312222   -0.150720
  H      3.142819   -0.234799    0.681761
  H      2.255743    0.883258    1.689887
  H      0.322956    2.165120    0.812005
  H      0.645845    2.512243   -2.245250
  H      0.257552    5.006980   -2.612935
  H     -1.393639    6.818669   -2.527303
  H     -3.299688    7.544494   -1.625234
  H     -3.385559    3.406686    2.061152
  H     -5.118777    3.698559    1.876994
  H     -4.313636    2.640165    0.713073
  H     -2.015128    2.763401    0.267958
  H      1.080553   -3.918407   -1.733010
  H      1.225694   -6.176362   -2.665912
  H      1.066493   -8.362777   -2.258196

----------------------------
CARTESIAN COORDINATES (A.U.)
----------------------------
  NO LB      ZA    FRAG     MASS         X           Y           Z
   0 C     6.0000    0    12.011   -0.024524  -15.166050    5.041736
   1 O     8.0000    0    15.999    0.579193  -15.407435    2.438368
   2 C     6.0000    0    12.011    0.949691  -13.229751    1.087227
   3 C     6.0000    0    12.011    0.811833  -10.782821    2.081054
   4 C     6.0000    0    12.011    1.243257   -8.661506    0.544539
   5 C     6.0000    0    12.011    1.030495   -6.131933    1.669573
   6 C     6.0000    0    12.011    2.560744   -4.200302    1.078887
   7 C     6.0000    0    12.011    2.221402   -1.694293    2.316701
   8 O     8.0000    0    15.999    0.481483   -1.286968    3.802318
   9 C     6.0000    0    12.011    4.054936    0.353430    1.608024
  10 C     6.0000    0    12.011    3.211566    1.741729   -0.719593
  11 O     8.0000    0    15.999    4.034591    1.179626   -2.818563
  12 C     6.0000    0    12.011    1.287371    3.767910   -0.372288
  13 C     6.0000    0    12.011    0.463758    5.103121   -2.362334
  14 C     6.0000    0    12.011   -1.427509    7.127274   -2.175748
  15 C     6.0000    0    12.011   -1.135463    9.278818   -3.687261
  16 C     6.0000    0    12.011   -2.908276   11.228841   -3.598101
  17 C     6.0000    0    12.011   -4.995696   11.016840   -2.006011
  18 O     8.0000    0    15.999   -6.736783   12.929669   -1.912954
  19 C     6.0000    0    12.011   -5.352398    8.868314   -0.499362
  20 O     8.0000    0    15.999   -7.478944    8.849693    0.978422
  21 C     6.0000    0    12.011   -7.911798    6.686401    2.506639
  22 C     6.0000    0    12.011   -3.560264    6.925886   -0.606388
  23 C     6.0000    0    12.011    1.764733   -9.013600   -2.026270
  24 C     6.0000    0    12.011    1.906139  -11.443970   -3.040908
  25 C     6.0000    0    12.011    1.505553  -13.530535   -1.484215
  26 O     8.0000    0    15.999    1.645160  -15.916649   -2.477074
  27 H     1.0000    0     1.008    1.516366  -14.260366    6.084278
  28 H     1.0000    0     1.008   -1.806594  -14.147755    5.304535
  29 H     1.0000    0     1.008   -0.269956  -17.068901    5.813223
  30 H     1.0000    0     1.008    0.384089  -10.480051    4.064220
  31 H     1.0000    0     1.008   -0.449329   -5.896081    3.080428
  32 H     1.0000    0     1.008    4.080312   -4.369467   -0.284820
  33 H     1.0000    0     1.008    5.939068   -0.443707    1.288342
  34 H     1.0000    0     1.008    4.262736    1.669115    3.193424
  35 H     1.0000    0     1.008    0.610299    4.091484    1.534467
  36 H     1.0000    0     1.008    1.220471    4.747451   -4.242908
  37 H     1.0000    0     1.008    0.486702    9.461821   -4.937731
  38 H     1.0000    0     1.008   -2.633596   12.885417   -4.775910
  39 H     1.0000    0     1.008   -6.235507   14.257027   -3.071247
  40 H     1.0000    0     1.008   -6.397779    6.437704    3.895013
  41 H     1.0000    0     1.008   -9.673087    6.989264    3.547004
  42 H     1.0000    0     1.008   -8.151590    4.989188    1.347513
  43 H     1.0000    0     1.008   -3.808040    5.222071    0.506368
  44 H     1.0000    0     1.008    2.041950   -7.404716   -3.274913
  45 H     1.0000    0     1.008    2.316225  -11.671633   -5.037844
  46 H     1.0000    0     1.008    2.015380  -15.803359   -4.267372

--------------------------------
INTERNAL COORDINATES (ANGSTROEM)
--------------------------------
 C      0   0   0     0.000000000000     0.00000000     0.00000000
 O      1   0   0     1.419957727859     0.00000000     0.00000000
 C      2   1   0     1.370268906767   117.56659124     0.00000000
 C      3   2   1     1.399487462993   125.06983792     0.87997821
 C      4   3   2     1.404761777937   120.88930723   179.46222719
 C      5   4   3     1.469332506670   118.75246654   178.90379483
 C      6   5   4     1.340999203244   123.62185593   142.06905758
 C      7   6   5     1.489933406422   120.21122020   180.22627965
 O      8   7   6     1.229730085176   121.82324190   356.44594040
 C      8   7   6     1.502084222812   117.03127622   178.35457153
 C     10   8   7     1.502010652995   111.44793633    86.15805601
 O     11  10   8     1.229583324508   121.14536058   263.46280363
 C     11  10   8     1.490040948064   116.99159184    81.74661937
 C     13  11  10     1.340961441864   120.29125347   179.35905177
 C     14  13  11     1.469255846565   123.55596275   179.97981650
 C     15  14  13     1.399981492407   118.63991316   142.00517300
 C     16  15  14     1.395403818529   120.52244961   179.01421603
 C     17  16  15     1.393758326981   119.58691189   359.43277653
 O     18  17  16     1.369634718165   119.69515381   179.92249028
 C     18  17  16     1.401410024772   121.06090991   359.66810247
 O     20  18  17     1.370394416152   116.17327578   180.52393923
 C     21  20  18     1.420192082381   117.59251239   179.29247922
 C     20  18  17     1.399693545046   118.78376347     0.33126762
 C      5   4   3     1.400567593760   119.20455469     1.35585353
 C     24   5   4     1.395682767146   120.45249073   358.68775411
 C     25  24   5     1.393808597462   119.63476075     0.49428598
 O     26  25  24     1.369618017419   119.69694697   180.03701965
 H      1   2   3     1.094962022369   111.14060306   297.25635439
 H      1   2   3     1.094995650816   111.17703337    61.72671749
 H      1   2   3     1.094293424931   107.81128821   179.50394679
 H      4   3   2     1.085468970933   120.71414405     0.00000000
 H      6   5   4     1.089131142087   115.92785196   323.32473154
 H      7   6   5     1.084154760507   122.69024288     0.00000000
 H     10   8   7     1.095738644240   110.40096757   324.37213146
 H     10   8   7     1.095754806766   109.39273663   208.39524819
 H     13  11  10     1.084341003717   117.01365441   359.38153845
 H     14  13  11     1.089086678306   120.46621630   358.71479363
 H     16  15  14     1.088175176501   120.45665137   358.49612091
 H     17  16  15     1.085384171185   119.19729913   179.49449908
 H     19  18  17     0.969246897389   109.19255221     0.52821173
 H     22  21  20     1.094985984085   111.15763535    62.29509164
 H     22  21  20     1.094287032208   107.80608012   180.05829742
 H     22  21  20     1.094975379802   111.15313388   297.82023543
 H     23  20  18     1.084826998939   120.43042688   181.38321652
 H     24   5   4     1.087644790455   120.83260842   177.85842974
 H     25  24   5     1.085491394058   119.17645865   180.11680549
 H     27  26  25     0.969285050687   109.19738534   359.37878432

---------------------------
INTERNAL COORDINATES (A.U.)
---------------------------
 C      0   0   0     0.000000000000     0.00000000     0.00000000
 O      1   0   0     2.683331227398     0.00000000     0.00000000
 C      2   1   0     2.589432963617   117.56659124     0.00000000
 C      3   2   1     2.644648032913   125.06983792     0.87997821
 C      4   3   2     2.654615043701   120.88930723   179.46222719
 C      5   4   3     2.776636037274   118.75246654   178.90379483
 C      6   5   4     2.534121239938   123.62185593   142.06905758
 C      7   6   5     2.815566095917   120.21122020   180.22627965
 O      8   7   6     2.323853079626   121.82324190   356.44594040
 C      8   7   6     2.838527811198   117.03127622   178.35457153
 C     10   8   7     2.838388784393   111.44793633    86.15805601
 O     11  10   8     2.323575742157   121.14536058   263.46280363
 C     11  10   8     2.815769320169   116.99159184    81.74661937
 C     13  11  10     2.534049881270   120.29125347   179.35905177
 C     14  13  11     2.776491170671   123.55596275   179.97981650
 C     15  14  13     2.645581613208   118.63991316   142.00517300
 C     16  15  14     2.636931063248   120.52244961   179.01421603
 C     17  16  15     2.633821534866   119.58691189   359.43277653
 O     18  17  16     2.588234520842   119.69515381   179.92249028
 C     18  17  16     2.648281148150   121.06090991   359.66810247
 O     20  18  17     2.589670141982   116.17327578   180.52393923
 C     21  20  18     2.683774093264   117.59251239   179.29247922
 C     20  18  17     2.645037471553   118.78376347     0.33126762
 C      5   4   3     2.646689184251   119.20455469     1.35585353
 C     24   5   4     2.637458199739   120.45249073   358.68775411
 C     25  24   5     2.633916532309   119.63476075     0.49428598
 O     26  25  24     2.588202961007   119.69694697   180.03701965
 H      1   2   3     2.069178349322   111.14060306   297.25635439
 H      1   2   3     2.069241897877   111.17703337    61.72671749
 H      1   2   3     2.067914883271   107.81128821   179.50394679
 H      4   3   2     2.051239081933   120.71414405     0.00000000
 H      6   5   4     2.058159582469   115.92785196   323.32473154
 H      7   6   5     2.048755584145   122.69024288     0.00000000
 H     10   8   7     2.070645951967   110.40096757   324.37213146
 H     10   8   7     2.070676494716   109.39273663   208.39524819
 H     13  11  10     2.049107532807   117.01365441   359.38153845
 H     14  13  11     2.058075558100   120.46621630   358.71479363
 H     16  15  14     2.056353069317   120.45665137   358.49612091
 H     17  16  15     2.051078833633   119.19729913   179.49449908
 H     19  18  17     1.831611192218   109.19255221     0.52821173
 H     22  21  20     2.069223630403   111.15763535    62.29509164
 H     22  21  20     2.067902802774   107.80608012   180.05829742
 H     22  21  20     2.069203591211   111.15313388   297.82023543
 H     23  20  18     2.050025930678   120.43042688   181.38321652
 H     24   5   4     2.055350784945   120.83260842   177.85842974
 H     25  24   5     2.051281455498   119.17645865   180.11680549
 H     27  26  25     1.831683291502   109.19738534   359.37878432

---------------------
BASIS SET INFORMATION
---------------------
There are 3 groups of distinct atoms

 Group   1 Type C   : 10s4p1d contracted to 3s2p1d pattern {631/31/1}
 Group   2 Type O   : 10s4p1d contracted to 3s2p1d pattern {631/31/1}
 Group   3 Type H   : 4s contracted to 2s pattern {31}

Atom   0C    basis set group =>   1
Atom   1O    basis set group =>   2
Atom   2C    basis set group =>   1
Atom   3C    basis set group =>   1
Atom   4C    basis set group =>   1
Atom   5C    basis set group =>   1
Atom   6C    basis set group =>   1
Atom   7C    basis set group =>   1
Atom   8O    basis set group =>   2
Atom   9C    basis set group =>   1
Atom  10C    basis set group =>   1
Atom  11O    basis set group =>   2
Atom  12C    basis set group =>   1
Atom  13C    basis set group =>   1
Atom  14C    basis set group =>   1
Atom  15C    basis set group =>   1
Atom  16C    basis set group =>   1
Atom  17C    basis set group =>   1
Atom  18O    basis set group =>   2
Atom  19C    basis set group =>   1
Atom  20O    basis set group =>   2
Atom  21C    basis set group =>   1
Atom  22C    basis set group =>   1
Atom  23C    basis set group =>   1
Atom  24C    basis set group =>   1
Atom  25C    basis set group =>   1
Atom  26O    basis set group =>   2
Atom  27H    basis set group =>   3
Atom  28H    basis set group =>   3
Atom  29H    basis set group =>   3
Atom  30H    basis set group =>   3
Atom  31H    basis set group =>   3
Atom  32H    basis set group =>   3
Atom  33H    basis set group =>   3
Atom  34H    basis set group =>   3
Atom  35H    basis set group =>   3
Atom  36H    basis set group =>   3
Atom  37H    basis set group =>   3
Atom  38H    basis set group =>   3
Atom  39H    basis set group =>   3
Atom  40H    basis set group =>   3
Atom  41H    basis set group =>   3
Atom  42H    basis set group =>   3
Atom  43H    basis set group =>   3
Atom  44H    basis set group =>   3
Atom  45H    basis set group =>   3
Atom  46H    basis set group =>   3
---------------------------------
AUXILIARY/J BASIS SET INFORMATION
---------------------------------
There are 3 groups of distinct atoms

 Group   1 Type C   : 12s5p4d2f1g contracted to 6s4p3d1f1g pattern {711111/2111/211/2/1}
 Group   2 Type O   : 12s5p4d2f1g contracted to 6s4p3d1f1g pattern {711111/2111/211/2/1}
 Group   3 Type H   : 5s2p1d contracted to 3s1p1d pattern {311/2/1}

Atom   0C    basis set group =>   1
Atom   1O    basis set group =>   2
Atom   2C    basis set group =>   1
Atom   3C    basis set group =>   1
Atom   4C    basis set group =>   1
Atom   5C    basis set group =>   1
Atom   6C    basis set group =>   1
Atom   7C    basis set group =>   1
Atom   8O    basis set group =>   2
Atom   9C    basis set group =>   1
Atom  10C    basis set group =>   1
Atom  11O    basis set group =>   2
Atom  12C    basis set group =>   1
Atom  13C    basis set group =>   1
Atom  14C    basis set group =>   1
Atom  15C    basis set group =>   1
Atom  16C    basis set group =>   1
Atom  17C    basis set group =>   1
Atom  18O    basis set group =>   2
Atom  19C    basis set group =>   1
Atom  20O    basis set group =>   2
Atom  21C    basis set group =>   1
Atom  22C    basis set group =>   1
Atom  23C    basis set group =>   1
Atom  24C    basis set group =>   1
Atom  25C    basis set group =>   1
Atom  26O    basis set group =>   2
Atom  27H    basis set group =>   3
Atom  28H    basis set group =>   3
Atom  29H    basis set group =>   3
Atom  30H    basis set group =>   3
Atom  31H    basis set group =>   3
Atom  32H    basis set group =>   3
Atom  33H    basis set group =>   3
Atom  34H    basis set group =>   3
Atom  35H    basis set group =>   3
Atom  36H    basis set group =>   3
Atom  37H    basis set group =>   3
Atom  38H    basis set group =>   3
Atom  39H    basis set group =>   3
Atom  40H    basis set group =>   3
Atom  41H    basis set group =>   3
Atom  42H    basis set group =>   3
Atom  43H    basis set group =>   3
Atom  44H    basis set group =>   3
Atom  45H    basis set group =>   3
Atom  46H    basis set group =>   3
------------------------------------------------------------------------------
                             ORCA STARTUP CALCULATIONS
                           -- RI-GTO INTEGRALS CHOSEN --
------------------------------------------------------------------------------
------------------------------------------------------------------------------
                   ___                                                        
                  /   \      - P O W E R E D   B Y -                         
                 /     \                                                     
                 |  |  |   _    _      __       _____    __    __             
                 |  |  |  | |  | |    /  \     |  _  \  |  |  /  |          
                  \  \/   | |  | |   /    \    | | | |  |  | /  /          
                 / \  \   | |__| |  /  /\  \   | |_| |  |  |/  /          
                |  |  |   |  __  | /  /__\  \  |    /   |      \           
                |  |  |   | |  | | |   __   |  |    \   |  |\   \          
                \     /   | |  | | |  |  |  |  | |\  \  |  | \   \       
                 \___/    |_|  |_| |__|  |__|  |_| \__\ |__|  \__/        
                                                                              
                      - O R C A' S   B I G   F R I E N D -                    
                                      &                                       
                       - I N T E G R A L  F E E D E R -                       
                                                                              
 v1 FN, 2020, v2 2021, v3 2022-2024                                           
------------------------------------------------------------------------------


----------------------
SHARK INTEGRAL PACKAGE
----------------------

Number of atoms                             ...     47
Number of basis functions                   ...    418
Number of shells                            ...    202
Maximum angular momentum                    ...      2
Integral batch strategy                     ... SHARK/LIBINT Hybrid
RI-J (if used) integral strategy            ... SPLIT-RIJ (Revised 2003 algorithm where possible)
Printlevel                                  ...      1
Contraction scheme used                     ... SEGMENTED contraction
Prescreening option                         ... SCHWARTZ
   Thresh                                   ... 2.500e-11
   Tcut                                     ... 2.500e-12
   Tpresel                                  ... 2.500e-12 
Coulomb Range Separation                    ... NOT USED
Exchange Range Separation                   ... NOT USED
Multipole approximations                    ... NOT USED
Finite Nucleus Model                        ... NOT USED
CABS basis                                  ... NOT available
Auxiliary Coulomb fitting basis             ... AVAILABLE
   # of basis functions in Aux-J            ...   1543
   # of shells in Aux-J                     ...    505
   Maximum angular momentum in Aux-J        ...      4
Auxiliary J/K fitting basis                 ... NOT available
Auxiliary Correlation fitting basis         ... NOT available
Auxiliary 'external' fitting basis          ... NOT available

Checking pre-screening integrals            ... done (  0.0 sec) Dimension = 202
   => SHARK Basis and OBASIS are compatible. Storing Pre-screening
Shell pair information
Shell pair cut-off parameter TPreSel        ...   2.5e-12
Total number of shell pairs                 ...     20503
Shell pairs after pre-screening             ...     10373
Total number of primitive shell pairs       ...    118482
Primitive shell pairs kept                  ...     33347
          la=0 lb=0:   3534 shell pairs
          la=1 lb=0:   3578 shell pairs
          la=1 lb=1:    912 shell pairs
          la=2 lb=0:   1432 shell pairs
          la=2 lb=1:    763 shell pairs
          la=2 lb=2:    154 shell pairs

Checking whether 4 symmetric matrices of dimension 418 fit in memory
:Max Core in MB      =   4096.00
 MB in use           =     15.09
 MB left             =   4080.91
 MB needed           =      2.67
 Data fit in memory  = YES
Calculating RI/J V-Matrix + Cholesky decomp.... done (  0.2 sec)
Calculating Nuclear repulsion               ... done (  0.0 sec) ENN=   2139.450148042974 Eh

Diagonalization of the overlap matrix:
Smallest eigenvalue                        ... 4.184e-04
Time for diagonalization                   ...    0.037 sec
Threshold for overlap eigenvalues          ... 1.000e-07
Number of eigenvalues below threshold      ... 0
Time for construction of square roots      ...    0.018 sec
Total time needed                          ...    0.057 sec

-------------------
DFT GRID GENERATION
-------------------

General Integration Accuracy     IntAcc      ... 4.388
Radial Grid Type                 RadialGrid  ... OptM3 with GC (2021)
Angular Grid (max. ang.)         AngularGrid ... 4 (Lebedev-302)
Angular grid pruning method      GridPruning ... 4 (adaptive)
Weight generation scheme         WeightScheme... mBecke (2022)
Basis function cutoff            BFCut       ... 1.0000e-11
Integration weight cutoff        WCut        ... 1.0000e-14
Partially contracted basis set               ... off
Rotationally invariant grid construction     ... off
Angular grids for H and He will be reduced by one unit

Total number of grid points                  ...   226204
Total number of batches                      ...     3559
Average number of points per batch           ...       63
Average number of grid points per atom       ...     4813

--------------------
COSX GRID GENERATION
--------------------

GRIDX 1
-------
General Integration Accuracy     IntAcc      ... 3.816
Radial Grid Type                 RadialGrid  ... OptM3 with GC (2021)
Angular Grid (max. ang.)         AngularGrid ... 1 (Lebedev-50)
Angular grid pruning method      GridPruning ... 4 (adaptive)
Weight generation scheme         WeightScheme... mBecke (2022)
Basis function cutoff            BFCut       ... 1.0000e-11
Integration weight cutoff        WCut        ... 1.0000e-14
Partially contracted basis set               ... on
Rotationally invariant grid construction     ... off
Angular grids for H and He will be reduced by one unit

Total number of grid points                  ...    28723
Total number of batches                      ...      251
Average number of points per batch           ...      114
Average number of grid points per atom       ...      611
UseSFitting                                  ... on

GRIDX 2
-------
General Integration Accuracy     IntAcc      ... 4.020
Radial Grid Type                 RadialGrid  ... OptM3 with GC (2021)
Angular Grid (max. ang.)         AngularGrid ... 2 (Lebedev-110)
Angular grid pruning method      GridPruning ... 4 (adaptive)
Weight generation scheme         WeightScheme... mBecke (2022)
Basis function cutoff            BFCut       ... 1.0000e-11
Integration weight cutoff        WCut        ... 1.0000e-14
Partially contracted basis set               ... on
Rotationally invariant grid construction     ... off
Angular grids for H and He will be reduced by one unit

Total number of grid points                  ...    62774
Total number of batches                      ...      514
Average number of points per batch           ...      122
Average number of grid points per atom       ...     1336
UseSFitting                                  ... on

GRIDX 3
-------
General Integration Accuracy     IntAcc      ... 4.338
Radial Grid Type                 RadialGrid  ... OptM3 with GC (2021)
Angular Grid (max. ang.)         AngularGrid ... 3 (Lebedev-194)
Angular grid pruning method      GridPruning ... 4 (adaptive)
Weight generation scheme         WeightScheme... mBecke (2022)
Basis function cutoff            BFCut       ... 1.0000e-11
Integration weight cutoff        WCut        ... 1.0000e-14
Partially contracted basis set               ... on
Rotationally invariant grid construction     ... off
Angular grids for H and He will be reduced by one unit

Total number of grid points                  ...   137457
Total number of batches                      ...     1097
Average number of points per batch           ...      125
Average number of grid points per atom       ...     2925
UseSFitting                                  ... on
Grids setup in   9.5 sec
Initializing property integral containers    ... done (  0.0 sec)

SHARK setup successfully completed in  10.3 seconds

Maximum memory used throughout the entire STARTUP-calculation: 90.2 MB
-------------------------------------------------------------------------------
                                 ORCA GUESS
                   Start orbitals & Density for SCF / CASSCF
-------------------------------------------------------------------------------

------------
SCF SETTINGS
------------
Hamiltonian:
 Density Functional     Method          .... DFT(GTOs)
 Exchange Functional    Exchange        .... B88
   X-Alpha parameter    XAlpha          ....  0.666667
   Becke's b parameter  XBeta           ....  0.004200
 Correlation Functional Correlation     .... LYP
 LDA part of GGA corr.  LDAOpt          .... VWN-5
 Gradients option       PostSCFGGA      .... off
 Hybrid DFT is turned on
   Fraction HF Exchange ScalHFX         ....  0.200000
   Scaling of DF-GGA-X  ScalDFX         ....  0.720000
   Scaling of DF-GGA-C  ScalDFC         ....  0.810000
   Scaling of DF-LDA-C  ScalLDAC        ....  1.000000
   Perturbative correction              ....  0.000000
   NL short-range parameter             ....  4.800000
 RI-approximation to the Coulomb term is turned on
   Number of AuxJ basis functions       .... 1543
   RIJ-COSX (HFX calculated with COS-X)).... on


General Settings:
 Integral files         IntName         .... curcumin
 Hartree-Fock type      HFTyp           .... RHF
 Total Charge           Charge          ....    0
 Multiplicity           Mult            ....    1
 Number of Electrons    NEL             ....  194
 Basis Dimension        Dim             ....  418
 Nuclear Repulsion      ENuc            ....   2139.4501480430 Eh

Convergence Acceleration:
 AO-DIIS                CNVDIIS         .... on
   Start iteration      DIISMaxIt       ....    12
   Startup error        DIISStart       ....  0.200000
   # of expansion vecs  DIISMaxEq       ....     5
   Bias factor          DIISBfac        ....   1.050
   Max. coefficient     DIISMaxC        ....  10.000
 MO-DIIS                CNVKDIIS        .... off
 Trust-Rad. Augm. Hess. CNVTRAH         .... auto
   Auto Start mean grad. ratio tolernc. ....  1.125000
   Auto Start start iteration           ....    50
   Auto Start num. interpolation iter.  ....    10
   Max. Number of Micro iterations      ....    24
   Max. Number of Macro iterations      .... Maxiter - #DIIS iter
   Number of Davidson start vectors     ....     2
   Converg. threshold    (grad. norm)   ....   1.000e-05
   Grad. Scal. Fac. for Micro threshold ....   0.100
   Minimum threshold for Micro iter.    ....   1.000e-02
   NR start threshold (gradient norm)   ....   1.000e-04
   Initial trust radius                 ....   0.400
   Minimum AH scaling param. (alpha)    ....   1.000
   Maximum AH scaling param. (alpha)    .... 1000.000
   Quad. conv. algorithm                .... NR
   White noise on init. David. guess    .... on
   Maximum white noise                  ....   0.010
   Pseudo random numbers                .... off
   Inactive MOs                         .... canonical
   Orbital update algorithm             .... Taylor
   Preconditioner                       .... Diag
   Full preconditioner red. dimension   ....   250
 SOSCF                 CNVSOSCF           .... on
   Start iteration     SOSCFMaxIt         ....   150
   Startup grad/error  SOSCFStart         ....  0.003300
   Hessian update      SOSCFHessUp        .... L-BFGS
   Autom. constraints  SOSCFAutoConstrain .... off
 Level Shifting         CNVShift        .... on
   Level shift para.    LevelShift      ....    0.2500
   Turn off err/grad.   ShiftErr        ....    0.0010
 Zerner damping         CNVZerner       .... off
 Static damping         CNVDamp         .... on
   Fraction old density DampFac         ....    0.7000
   Max. Damping (<1)    DampMax         ....    0.9800
   Min. Damping (>=0)   DampMin         ....    0.0000
   Turn off err/grad.   DampErr         ....    0.1000

SCF Procedure:
 Maximum # iterations   MaxIter         ....   125
 SCF integral mode      SCFMode         .... Direct
   Integral package                     .... SHARK and LIBINT hybrid scheme
 Reset frequency        DirectResetFreq ....    20
 Integral Threshold     Thresh          ....  2.500e-11 Eh
 Primitive CutOff       TCut            ....  2.500e-12 Eh

Convergence Tolerance:
 Convergence Check Mode ConvCheckMode   .... Total+1el-Energy
 Convergence forced     ConvForced      .... 0
 Energy Change          TolE            ....  1.000e-08 Eh
 1-El. energy change                    ....  1.000e-05 Eh
 Orbital Gradient       TolG            ....  1.000e-05
 Orbital Rotation angle TolX            ....  1.000e-05
 DIIS Error             TolErr          ....  5.000e-07

------------------------------
INITIAL GUESS: MODEL POTENTIAL
------------------------------
Loading Hartree-Fock densities                     ... done
Calculating cut-offs                               ... done
Initializing the effective Hamiltonian             ... done
Setting up the integral package (SHARK)            ... done
Starting the Coulomb interaction                   ... done (   2.0 sec)
Making the grid                                    ... done (   1.1 sec)
Mapping shells                                     ... done
Starting the XC term evaluation                    ... done (   1.5 sec)
  promolecular density results
     # of electrons  =    193.976092451
     EX              =   -163.093266702
     EC              =     -6.643519647
     EX+EC           =   -169.736786349
Transforming the Hamiltonian                       ... done (   0.0 sec)
Diagonalizing the Hamiltonian                      ... done (   0.0 sec)
Back transforming the eigenvectors                 ... done (   0.0 sec)
Now organizing SCF variables                       ... done
                      ------------------
                      INITIAL GUESS DONE (   4.7 sec)
                      ------------------
             **** ENERGY FILE WAS UPDATED (curcumin.en.tmp) ****
Finished Guess after   4.9 sec
Maximum memory used throughout the entire GUESS-calculation: 27.1 MB

-------------------------------------------------------------------------------------------
                                      ORCA LEAN-SCF
                              memory conserving SCF solver
-------------------------------------------------------------------------------------------

----------------------------------------D-I-I-S--------------------------------------------
Iteration    Energy (Eh)           Delta-E    RMSDP     MaxDP     DIISErr   Damp  Time(sec)
-------------------------------------------------------------------------------------------
               ***  Starting incremental Fock matrix formation  ***
    1    -1262.1557644262311442     0.00e+00  2.20e-03  8.92e-02  2.50e-01  0.700  37.9
    2    -1262.4501910079352456    -2.94e-01  1.49e-03  4.81e-02  1.06e-01  0.700  19.8
                               ***Turning on AO-DIIS***
    3    -1262.5676736651280407    -1.17e-01  6.24e-04  1.60e-02  3.88e-02  0.700  17.8
    4    -1262.6397920061117475    -7.21e-02  1.01e-03  2.22e-02  2.02e-02  0.000  16.1
    5    -1262.7962063513241446    -1.56e-01  2.28e-04  8.43e-03  7.53e-03  0.000  16.7
                              *** Initializing SOSCF ***
---------------------------------------S-O-S-C-F--------------------------------------
Iteration    Energy (Eh)           Delta-E    RMSDP     MaxDP     MaxGrad    Time(sec)
--------------------------------------------------------------------------------------
    6    -1262.7972654749132744    -1.06e-03  6.57e-05  2.29e-03  1.16e-03    14.7
               *** Restarting incremental Fock matrix formation ***
    7    -1262.7973781826131017    -1.13e-04  5.52e-05  1.65e-03  3.60e-04    38.4
    8    -1262.7973650068861389     1.32e-05  2.74e-05  1.11e-03  6.62e-04    36.9
    9    -1262.7973902792459739    -2.53e-05  8.36e-06  2.66e-04  3.92e-05    25.6
   10    -1262.7973902135113349     6.57e-08  3.55e-06  1.24e-04  4.20e-05    19.0
   11    -1262.7973905619719517    -3.48e-07  2.68e-06  9.51e-05  2.28e-05    16.0
   12    -1262.7973905566027497     5.37e-09  1.47e-06  4.90e-05  2.07e-05    15.1
                 **** Energy Check signals convergence ****

               *****************************************************
               *                     SUCCESS                       *
               *           SCF CONVERGED AFTER  12 CYCLES          *
               *****************************************************

Recomputing exchange energy using gridx3       ... done (   60.533 sec)
Old exchange energy                            :    -33.088610553 Eh
New exchange energy                            :    -33.088758697 Eh
Exchange energy change after final integration :     -0.000148144 Eh
Total energy after final integration           :  -1262.797538738 Eh
             **** ENERGY FILE WAS UPDATED (curcumin.en.tmp) ****

----------------
TOTAL SCF ENERGY
----------------

Total Energy       :      -1262.79753873784898 Eh          -34362.46798 eV

Components:
Nuclear Repulsion  :       2139.45014804297352 Eh           58217.39824 eV
Electronic Energy  :      -3402.24753863690466 Eh          -92579.86220 eV
One Electron Energy:      -5972.34135363709174 Eh         -162515.67037 eV
Two Electron Energy:       2570.09381500018708 Eh           69935.80817 eV

Virial components:
Potential Energy   :      -2518.33649016974778 Eh          -68527.41976 eV
Kinetic Energy     :       1255.53895143189902 Eh           34164.95178 eV
Virial Ratio       :          2.00578125218471

DFT components:
N(Alpha)           :       97.000011957911 electrons
N(Beta)            :       97.000011957911 electrons
N(Total)           :      194.000023915821 electrons
E(X)               :     -131.509961152842 Eh       
E(C)               :       -7.826806996513 Eh       
E(XC)              :     -139.336768149355 Eh       

---------------
SCF CONVERGENCE
---------------

  Last Energy change         ...   -5.3692e-09  Tolerance :   1.0000e-08
  Last MAX-Density change    ...    4.9030e-05  Tolerance :   1.0000e-07
  Last RMS-Density change    ...    1.4749e-06  Tolerance :   5.0000e-09
  Last DIIS Error            ...    1.1554e-03  Tolerance :   5.0000e-07
  Last Orbital Gradient      ...    2.0750e-05  Tolerance :   1.0000e-05
  Last Orbital Rotation      ...    3.5314e-05  Tolerance :   1.0000e-05


----------------
ORBITAL ENERGIES
----------------

  NO   OCC          E(Eh)            E(eV) 
   0   2.0000     -19.172084      -521.6989 
   1   2.0000     -19.171366      -521.6794 
   2   2.0000     -19.170406      -521.6533 
   3   2.0000     -19.170068      -521.6441 
   4   2.0000     -19.122826      -520.3585 
   5   2.0000     -19.121818      -520.3311 
   6   2.0000     -10.265435      -279.3367 
   7   2.0000     -10.264534      -279.3122 
   8   2.0000     -10.247851      -278.8582 
   9   2.0000     -10.246692      -278.8267 
  10   2.0000     -10.245749      -278.8010 
  11   2.0000     -10.244253      -278.7603 
  12   2.0000     -10.231416      -278.4110 
  13   2.0000     -10.228231      -278.3243 
  14   2.0000     -10.197846      -277.4975 
  15   2.0000     -10.196408      -277.4584 
  16   2.0000     -10.191555      -277.3263 
  17   2.0000     -10.190219      -277.2900 
  18   2.0000     -10.187195      -277.2077 
  19   2.0000     -10.186920      -277.2002 
  20   2.0000     -10.185993      -277.1750 
  21   2.0000     -10.185339      -277.1572 
  22   2.0000     -10.184136      -277.1244 
  23   2.0000     -10.183227      -277.0997 
  24   2.0000     -10.179826      -277.0072 
  25   2.0000     -10.179337      -276.9938 
  26   2.0000     -10.177931      -276.9556 
  27   2.0000      -1.068738       -29.0818 
  28   2.0000      -1.067082       -29.0368 
  29   2.0000      -1.049698       -28.5637 
  30   2.0000      -1.048175       -28.5223 
  31   2.0000      -1.025064       -27.8934 
  32   2.0000      -1.019181       -27.7333 
  33   2.0000      -0.858102       -23.3501 
  34   2.0000      -0.856801       -23.3147 
  35   2.0000      -0.799714       -21.7613 
  36   2.0000      -0.795615       -21.6498 
  37   2.0000      -0.772314       -21.0157 
  38   2.0000      -0.755283       -20.5523 
  39   2.0000      -0.754400       -20.5283 
  40   2.0000      -0.738462       -20.0946 
  41   2.0000      -0.728027       -19.8106 
  42   2.0000      -0.696765       -18.9599 
  43   2.0000      -0.694054       -18.8862 
  44   2.0000      -0.651009       -17.7148 
  45   2.0000      -0.637460       -17.3462 
  46   2.0000      -0.619308       -16.8522 
  47   2.0000      -0.609315       -16.5803 
  48   2.0000      -0.585733       -15.9386 
  49   2.0000      -0.572758       -15.5855 
  50   2.0000      -0.550045       -14.9675 
  51   2.0000      -0.548585       -14.9277 
  52   2.0000      -0.532548       -14.4914 
  53   2.0000      -0.519616       -14.1395 
  54   2.0000      -0.513841       -13.9823 
  55   2.0000      -0.512058       -13.9338 
  56   2.0000      -0.492177       -13.3928 
  57   2.0000      -0.487592       -13.2681 
  58   2.0000      -0.479524       -13.0485 
  59   2.0000      -0.472628       -12.8609 
  60   2.0000      -0.470211       -12.7951 
  61   2.0000      -0.467431       -12.7195 
  62   2.0000      -0.462070       -12.5736 
  63   2.0000      -0.447080       -12.1657 
  64   2.0000      -0.446454       -12.1486 
  65   2.0000      -0.441789       -12.0217 
  66   2.0000      -0.439389       -11.9564 
  67   2.0000      -0.431814       -11.7503 
  68   2.0000      -0.422151       -11.4873 
  69   2.0000      -0.418063       -11.3761 
  70   2.0000      -0.410232       -11.1630 
  71   2.0000      -0.408617       -11.1190 
  72   2.0000      -0.401881       -10.9357 
  73   2.0000      -0.395039       -10.7496 
  74   2.0000      -0.392835       -10.6896 
  75   2.0000      -0.382007       -10.3949 
  76   2.0000      -0.374967       -10.2034 
  77   2.0000      -0.369006       -10.0412 
  78   2.0000      -0.365481        -9.9453 
  79   2.0000      -0.361133        -9.8269 
  80   2.0000      -0.355388        -9.6706 
  81   2.0000      -0.350596        -9.5402 
  82   2.0000      -0.350104        -9.5268 
  83   2.0000      -0.343259        -9.3406 
  84   2.0000      -0.342286        -9.3141 
  85   2.0000      -0.328057        -8.9269 
  86   2.0000      -0.325763        -8.8645 
  87   2.0000      -0.324045        -8.8177 
  88   2.0000      -0.321966        -8.7612 
  89   2.0000      -0.273465        -7.4414 
  90   2.0000      -0.271330        -7.3833 
  91   2.0000      -0.249487        -6.7889 
  92   2.0000      -0.238261        -6.4834 
  93   2.0000      -0.236769        -6.4428 
  94   2.0000      -0.233121        -6.3435 
  95   2.0000      -0.203748        -5.5443 
  96   2.0000      -0.202365        -5.5066 
  97   0.0000      -0.065178        -1.7736 
  98   0.0000      -0.051485        -1.4010 
  99   0.0000       0.001811         0.0493 
 100   0.0000       0.003755         0.1022 
 101   0.0000       0.015608         0.4247 
 102   0.0000       0.028677         0.7803 
 103   0.0000       0.065839         1.7916 
 104   0.0000       0.066156         1.8002 
 105   0.0000       0.072013         1.9596 
 106   0.0000       0.086557         2.3553 
 107   0.0000       0.093363         2.5405 
*Only the first 10 virtual orbitals were printed.

                    ********************************
                    * MULLIKEN POPULATION ANALYSIS *
                    ********************************

-----------------------
MULLIKEN ATOMIC CHARGES
-----------------------
   0 C :   -0.210640
   1 O :   -0.479069
   2 C :    0.337325
   3 C :   -0.272796
   4 C :    0.138305
   5 C :   -0.145151
   6 C :   -0.193790
   7 C :    0.391075
   8 O :   -0.434116
   9 C :   -0.446409
  10 C :    0.391395
  11 O :   -0.430421
  12 C :   -0.194559
  13 C :   -0.146927
  14 C :    0.138452
  15 C :   -0.185204
  16 C :   -0.213677
  17 C :    0.318713
  18 O :   -0.626926
  19 C :    0.340133
  20 O :   -0.479950
  21 C :   -0.212008
  22 C :   -0.267044
  23 C :   -0.177235
  24 C :   -0.214502
  25 C :    0.320509
  26 O :   -0.627253
  27 H :    0.152392
  28 H :    0.151779
  29 H :    0.170777
  30 H :    0.141306
  31 H :    0.167541
  32 H :    0.149204
  33 H :    0.172484
  34 H :    0.174323
  35 H :    0.148185
  36 H :    0.170478
  37 H :    0.131207
  38 H :    0.125885
  39 H :    0.413787
  40 H :    0.154451
  41 H :    0.169950
  42 H :    0.154574
  43 H :    0.150947
  44 H :    0.140012
  45 H :    0.128107
  46 H :    0.414380
Sum of atomic charges:    0.0000000

--------------------------------
MULLIKEN REDUCED ORBITAL CHARGES
--------------------------------
  0 C s       :     3.247588  s :     3.247588
      pz      :     0.728368  p :     2.903453
      px      :     1.060704
      py      :     1.114380
      dz2     :     0.018561  d :     0.059599
      dxz     :     0.014972
      dyz     :     0.011492
      dx2y2   :     0.006616
      dxy     :     0.007958

  1 O s       :     3.875631  s :     3.875631
      pz      :     1.275745  p :     4.573679
      px      :     1.771876
      py      :     1.526058
      dz2     :     0.007384  d :     0.029759
      dxz     :     0.004146
      dyz     :     0.007913
      dx2y2   :     0.005654
      dxy     :     0.004662

  2 C s       :     3.062068  s :     3.062068
      pz      :     0.797023  p :     2.532124
      px      :     1.000093
      py      :     0.735008
      dz2     :     0.015278  d :     0.068484
      dxz     :     0.008256
      dyz     :     0.019458
      dx2y2   :     0.011315
      dxy     :     0.014177

  3 C s       :     3.197994  s :     3.197994
      pz      :     0.990250  p :     3.039935
      px      :     1.064362
      py      :     0.985324
      dz2     :     0.010561  d :     0.034867
      dxz     :     0.002741
      dyz     :     0.009025
      dx2y2   :     0.005635
      dxy     :     0.006906

  4 C s       :     3.121621  s :     3.121621
      pz      :     0.833455  p :     2.698525
      px      :     0.983254
      py      :     0.881816
      dz2     :     0.009915  d :     0.041549
      dxz     :     0.006400
      dyz     :     0.013204
      dx2y2   :     0.006153
      dxy     :     0.005877

  5 C s       :     3.225798  s :     3.225798
      pz      :     0.958463  p :     2.882063
      px      :     0.950222
      py      :     0.973377
      dz2     :     0.003642  d :     0.037291
      dxz     :     0.007650
      dyz     :     0.007573
      dx2y2   :     0.010150
      dxy     :     0.008276

  6 C s       :     3.215259  s :     3.215259
      pz      :     1.002674  p :     2.946213
      px      :     0.997827
      py      :     0.945711
      dz2     :     0.003286  d :     0.032318
      dxz     :     0.007174
      dyz     :     0.006178
      dx2y2   :     0.009459
      dxy     :     0.006221

  7 C s       :     3.088715  s :     3.088715
      pz      :     0.783414  p :     2.431075
      px      :     0.765618
      py      :     0.882043
      dz2     :     0.014567  d :     0.089136
      dxz     :     0.014495
      dyz     :     0.018987
      dx2y2   :     0.017676
      dxy     :     0.023411

  8 O s       :     3.869000  s :     3.869000
      pz      :     1.366202  p :     4.538142
      px      :     1.404423
      py      :     1.767517
      dz2     :     0.007449  d :     0.026974
      dxz     :     0.007190
      dyz     :     0.003085
      dx2y2   :     0.004796
      dxy     :     0.004455

  9 C s       :     3.285918  s :     3.285918
      pz      :     1.047800  p :     3.124101
      px      :     1.037796
      py      :     1.038504
      dz2     :     0.007306  d :     0.036390
      dxz     :     0.004293
      dyz     :     0.010345
      dx2y2   :     0.006036
      dxy     :     0.008409

 10 C s       :     3.087886  s :     3.087886
      pz      :     0.775384  p :     2.431576
      px      :     0.819504
      py      :     0.836688
      dz2     :     0.027945  d :     0.089143
      dxz     :     0.020232
      dyz     :     0.023989
      dx2y2   :     0.007960
      dxy     :     0.009017

 11 O s       :     3.868858  s :     3.868858
      pz      :     1.440095  p :     4.534507
      px      :     1.511650
      py      :     1.582761
      dz2     :     0.008191  d :     0.027057
      dxz     :     0.008096
      dyz     :     0.007518
      dx2y2   :     0.001908
      dxy     :     0.001343

 12 C s       :     3.215850  s :     3.215850
      pz      :     0.966303  p :     2.946435
      px      :     0.990107
      py      :     0.990026
      dz2     :     0.011331  d :     0.032274
      dxz     :     0.006648
      dyz     :     0.005856
      dx2y2   :     0.002919
      dxy     :     0.005519

 13 C s       :     3.227183  s :     3.227183
      pz      :     1.005926  p :     2.882412
      px      :     0.946711
      py      :     0.929775
      dz2     :     0.010587  d :     0.037331
      dxz     :     0.008526
      dyz     :     0.006813
      dx2y2   :     0.005684
      dxy     :     0.005721

 14 C s       :     3.121646  s :     3.121646
      pz      :     0.916455  p :     2.698344
      px      :     0.901750
      py      :     0.880139
      dz2     :     0.007664  d :     0.041557
      dxz     :     0.006818
      dyz     :     0.007398
      dx2y2   :     0.009525
      dxy     :     0.010153

 15 C s       :     3.200971  s :     3.200971
      pz      :     0.993722  p :     2.947506
      px      :     0.982522
      py      :     0.971262
      dz2     :     0.004094  d :     0.036726
      dxz     :     0.008281
      dyz     :     0.006920
      dx2y2   :     0.009599
      dxy     :     0.007832

 16 C s       :     3.174020  s :     3.174020
      pz      :     1.005611  p :     3.004719
      px      :     0.987992
      py      :     1.011116
      dz2     :     0.004221  d :     0.034937
      dxz     :     0.006473
      dyz     :     0.007939
      dx2y2   :     0.009934
      dxy     :     0.006371

 17 C s       :     3.067406  s :     3.067406
      pz      :     0.954529  p :     2.545084
      px      :     0.811273
      py      :     0.779281
      dz2     :     0.009948  d :     0.068798
      dxz     :     0.010148
      dyz     :     0.012813
      dx2y2   :     0.017456
      dxy     :     0.018433

 18 O s       :     3.892032  s :     3.892032
      pz      :     1.689721  p :     4.706065
      px      :     1.658780
      py      :     1.357563
      dz2     :     0.003065  d :     0.028829
      dxz     :     0.005240
      dyz     :     0.008065
      dx2y2   :     0.004800
      dxy     :     0.007659

 19 C s       :     3.061313  s :     3.061313
      pz      :     0.858276  p :     2.530039
      px      :     0.763885
      py      :     0.907878
      dz2     :     0.012424  d :     0.068515
      dxz     :     0.014600
      dyz     :     0.010703
      dx2y2   :     0.017373
      dxy     :     0.013415

 20 O s       :     3.875568  s :     3.875568
      pz      :     1.523776  p :     4.574653
      px      :     1.522930
      py      :     1.527947
      dz2     :     0.004628  d :     0.029728
      dxz     :     0.006250
      dyz     :     0.005793
      dx2y2   :     0.008264
      dxy     :     0.004792

 21 C s       :     3.248600  s :     3.248600
      pz      :     0.961746  p :     2.903899
      px      :     1.095201
      py      :     0.846953
      dz2     :     0.005979  d :     0.059510
      dxz     :     0.014144
      dyz     :     0.018126
      dx2y2   :     0.015294
      dxy     :     0.005966

 22 C s       :     3.196487  s :     3.196487
      pz      :     1.034987  p :     3.035756
      px      :     1.012593
      py      :     0.988175
      dz2     :     0.004317  d :     0.034802
      dxz     :     0.005751
      dyz     :     0.007969
      dx2y2   :     0.008847
      dxy     :     0.007917

 23 C s       :     3.199399  s :     3.199399
      pz      :     0.973550  p :     2.941157
      px      :     0.998108
      py      :     0.969499
      dz2     :     0.008325  d :     0.036679
      dxz     :     0.005016
      dyz     :     0.013536
      dx2y2   :     0.005339
      dxy     :     0.004463

 24 C s       :     3.175079  s :     3.175079
      pz      :     0.958950  p :     3.004482
      px      :     1.063258
      py      :     0.982274
      dz2     :     0.010106  d :     0.034941
      dxz     :     0.002732
      dyz     :     0.010245
      dx2y2   :     0.005178
      dxy     :     0.006680

 25 C s       :     3.066800  s :     3.066800
      pz      :     0.876018  p :     2.543879
      px      :     0.978975
      py      :     0.688886
      dz2     :     0.015025  d :     0.068812
      dxz     :     0.007678
      dyz     :     0.018615
      dx2y2   :     0.012459
      dxy     :     0.015036

 26 O s       :     3.892188  s :     3.892188
      pz      :     1.361757  p :     4.706254
      px      :     1.833149
      py      :     1.511348
      dz2     :     0.011177  d :     0.028811
      dxz     :     0.001933
      dyz     :     0.004233
      dx2y2   :     0.006396
      dxy     :     0.005071

 27 H s       :     0.847608  s :     0.847608

 28 H s       :     0.848221  s :     0.848221

 29 H s       :     0.829223  s :     0.829223

 30 H s       :     0.858694  s :     0.858694

 31 H s       :     0.832459  s :     0.832459

 32 H s       :     0.850796  s :     0.850796

 33 H s       :     0.827516  s :     0.827516

 34 H s       :     0.825677  s :     0.825677

 35 H s       :     0.851815  s :     0.851815

 36 H s       :     0.829522  s :     0.829522

 37 H s       :     0.868793  s :     0.868793

 38 H s       :     0.874115  s :     0.874115

 39 H s       :     0.586213  s :     0.586213

 40 H s       :     0.845549  s :     0.845549

 41 H s       :     0.830050  s :     0.830050

 42 H s       :     0.845426  s :     0.845426

 43 H s       :     0.849053  s :     0.849053

 44 H s       :     0.859988  s :     0.859988

 45 H s       :     0.871893  s :     0.871893

 46 H s       :     0.585620  s :     0.585620



                     *******************************
                     * LOEWDIN POPULATION ANALYSIS *
                     *******************************

----------------------
LOEWDIN ATOMIC CHARGES
----------------------
   0 C :   -0.204979
   1 O :   -0.159556
   2 C :    0.055682
   3 C :   -0.164430
   4 C :   -0.040136
   5 C :   -0.056805
   6 C :   -0.187782
   7 C :    0.120398
   8 O :   -0.230467
   9 C :   -0.277530
  10 C :    0.120477
  11 O :   -0.227387
  12 C :   -0.189772
  13 C :   -0.056308
  14 C :   -0.039837
  15 C :   -0.129127
  16 C :   -0.176085
  17 C :    0.063640
  18 O :   -0.308739
  19 C :    0.056555
  20 O :   -0.159742
  21 C :   -0.205103
  22 C :   -0.162902
  23 C :   -0.126869
  24 C :   -0.174779
  25 C :    0.063749
  26 O :   -0.308638
  27 H :    0.119562
  28 H :    0.119390
  29 H :    0.135499
  30 H :    0.140058
  31 H :    0.149810
  32 H :    0.140129
  33 H :    0.148315
  34 H :    0.150043
  35 H :    0.139450
  36 H :    0.151552
  37 H :    0.133818
  38 H :    0.131871
  39 H :    0.326898
  40 H :    0.120780
  41 H :    0.135137
  42 H :    0.120816
  43 H :    0.144716
  44 H :    0.138353
  45 H :    0.132995
  46 H :    0.327279

-------------------------------
LOEWDIN REDUCED ORBITAL CHARGES
-------------------------------
  0 C s       :     2.972374  s :     2.972374
      pz      :     0.840635  p :     3.113198
      px      :     1.120952
      py      :     1.151610
      dz2     :     0.038177  d :     0.119408
      dxz     :     0.030499
      dyz     :     0.024213
      dx2y2   :     0.011596
      dxy     :     0.014923

  1 O s       :     3.459872  s :     3.459872
      pz      :     1.327788  p :     4.631510
      px      :     1.759731
      py      :     1.543991
      dz2     :     0.019269  d :     0.068174
      dxz     :     0.010732
      dyz     :     0.019939
      dx2y2   :     0.009906
      dxy     :     0.008327

  2 C s       :     2.846704  s :     2.846704
      pz      :     0.985969  p :     2.932842
      px      :     0.997387
      py      :     0.949485
      dz2     :     0.040468  d :     0.164773
      dxz     :     0.017568
      dyz     :     0.048822
      dx2y2   :     0.028256
      dxy     :     0.029659

  3 C s       :     2.913543  s :     2.913543
      pz      :     1.072697  p :     3.168858
      px      :     1.051156
      py      :     1.045005
      dz2     :     0.022835  d :     0.082028
      dxz     :     0.004523
      dyz     :     0.024377
      dx2y2   :     0.015341
      dxy     :     0.014952

  4 C s       :     2.861817  s :     2.861817
      pz      :     1.056130  p :     3.073263
      px      :     0.991875
      py      :     1.025259
      dz2     :     0.027312  d :     0.105056
      dxz     :     0.014257
      dyz     :     0.036409
      dx2y2   :     0.014483
      dxy     :     0.012595

  5 C s       :     2.928133  s :     2.928133
      pz      :     0.986706  p :     3.042342
      px      :     1.017173
      py      :     1.038464
      dz2     :     0.008510  d :     0.086330
      dxz     :     0.014415
      dyz     :     0.017619
      dx2y2   :     0.024115
      dxy     :     0.021672

  6 C s       :     2.939945  s :     2.939945
      pz      :     1.048543  p :     3.168735
      px      :     1.072408
      py      :     1.047784
      dz2     :     0.008119  d :     0.079102
      dxz     :     0.013761
      dyz     :     0.015814
      dx2y2   :     0.023915
      dxy     :     0.017494

  7 C s       :     2.881552  s :     2.881552
      pz      :     0.869999  p :     2.786579
      px      :     0.921712
      py      :     0.994869
      dz2     :     0.029842  d :     0.211471
      dxz     :     0.036482
      dyz     :     0.046575
      dx2y2   :     0.041882
      dxy     :     0.056690

  8 O s       :     3.565962  s :     3.565962
      pz      :     1.398801  p :     4.610092
      px      :     1.456139
      py      :     1.755152
      dz2     :     0.010397  d :     0.054412
      dxz     :     0.018702
      dyz     :     0.006455
      dx2y2   :     0.009975
      dxy     :     0.008884

  9 C s       :     2.945485  s :     2.945485
      pz      :     1.085533  p :     3.253228
      px      :     1.084129
      py      :     1.083566
      dz2     :     0.015810  d :     0.078817
      dxz     :     0.009094
      dyz     :     0.022779
      dx2y2   :     0.012237
      dxy     :     0.018897

 10 C s       :     2.881163  s :     2.881163
      pz      :     0.996042  p :     2.786865
      px      :     0.887534
      py      :     0.903288
      dz2     :     0.071237  d :     0.211496
      dxz     :     0.047218
      dyz     :     0.055732
      dx2y2   :     0.015752
      dxy     :     0.021556

 11 O s       :     3.566110  s :     3.566110
      pz      :     1.519288  p :     4.606807
      px      :     1.512102
      py      :     1.575417
      dz2     :     0.020101  d :     0.054469
      dxz     :     0.015558
      dyz     :     0.013453
      dx2y2   :     0.002703
      dxy     :     0.002655

 12 C s       :     2.939922  s :     2.939922
      pz      :     1.095348  p :     3.170755
      px      :     1.034221
      py      :     1.041186
      dz2     :     0.026772  d :     0.079094
      dxz     :     0.015163
      dyz     :     0.015747
      dx2y2   :     0.006632
      dxy     :     0.014780

 13 C s       :     2.928169  s :     2.928169
      pz      :     1.109361  p :     3.041683
      px      :     0.965842
      py      :     0.966480
      dz2     :     0.024732  d :     0.086457
      dxz     :     0.018881
      dyz     :     0.017562
      dx2y2   :     0.011789
      dxy     :     0.013494

 14 C s       :     2.861767  s :     2.861767
      pz      :     1.019291  p :     3.073005
      px      :     1.025231
      py      :     1.028483
      dz2     :     0.017873  d :     0.105066
      dxz     :     0.017457
      dyz     :     0.019506
      dx2y2   :     0.023976
      dxy     :     0.026253

 15 C s       :     2.913614  s :     2.913614
      pz      :     1.030975  p :     3.129523
      px      :     1.048738
      py      :     1.049810
      dz2     :     0.009317  d :     0.085989
      dxz     :     0.016003
      dyz     :     0.016862
      dx2y2   :     0.022962
      dxy     :     0.020846

 16 C s       :     2.914186  s :     2.914186
      pz      :     1.051128  p :     3.177869
      px      :     1.054671
      py      :     1.072071
      dz2     :     0.009659  d :     0.084030
      dxz     :     0.016441
      dyz     :     0.015953
      dx2y2   :     0.023814
      dxy     :     0.018163

 17 C s       :     2.851453  s :     2.851453
      pz      :     1.020813  p :     2.920620
      px      :     0.961805
      py      :     0.938003
      dz2     :     0.022586  d :     0.164287
      dxz     :     0.024297
      dyz     :     0.030234
      dx2y2   :     0.042444
      dxy     :     0.044725

 18 O s       :     3.525230  s :     3.525230
      pz      :     1.687226  p :     4.730171
      px      :     1.666377
      py      :     1.376568
      dz2     :     0.005349  d :     0.053337
      dxz     :     0.007192
      dyz     :     0.014733
      dx2y2   :     0.010348
      dxy     :     0.015716

 19 C s       :     2.846756  s :     2.846756
      pz      :     0.954877  p :     2.931964
      px      :     0.925865
      py      :     1.051222
      dz2     :     0.027018  d :     0.164725
      dxz     :     0.034653
      dyz     :     0.026763
      dx2y2   :     0.041601
      dxy     :     0.034690

 20 O s       :     3.459976  s :     3.459976
      pz      :     1.537027  p :     4.631648
      px      :     1.535301
      py      :     1.559320
      dz2     :     0.011034  d :     0.068118
      dxz     :     0.015183
      dyz     :     0.013642
      dx2y2   :     0.017708
      dxy     :     0.010551

 21 C s       :     2.972632  s :     2.972632
      pz      :     1.033110  p :     3.113197
      px      :     1.136833
      py      :     0.943254
      dz2     :     0.011792  d :     0.119274
      dxz     :     0.027137
      dyz     :     0.036889
      dx2y2   :     0.031692
      dxy     :     0.011764

 22 C s       :     2.913724  s :     2.913724
      pz      :     1.053038  p :     3.167363
      px      :     1.050102
      py      :     1.064223
      dz2     :     0.009718  d :     0.081816
      dxz     :     0.014355
      dyz     :     0.015717
      dx2y2   :     0.020999
      dxy     :     0.021027

 23 C s       :     2.913839  s :     2.913839
      pz      :     1.060904  p :     3.127256
      px      :     0.998272
      py      :     1.068081
      dz2     :     0.021247  d :     0.085773
      dxz     :     0.010587
      dyz     :     0.032877
      dx2y2   :     0.011759
      dxy     :     0.009303

 24 C s       :     2.914389  s :     2.914389
      pz      :     1.059636  p :     3.176427
      px      :     1.050998
      py      :     1.065793
      dz2     :     0.021967  d :     0.083963
      dxz     :     0.004462
      dyz     :     0.027805
      dx2y2   :     0.014774
      dxy     :     0.014955

 25 C s       :     2.851395  s :     2.851395
      pz      :     1.034390  p :     2.920557
      px      :     0.977453
      py      :     0.908713
      dz2     :     0.037389  d :     0.164299
      dxz     :     0.016393
      dyz     :     0.049152
      dx2y2   :     0.029517
      dxy     :     0.031847

 26 O s       :     3.525160  s :     3.525160
      pz      :     1.377769  p :     4.730171
      px      :     1.820123
      py      :     1.532279
      dz2     :     0.020095  d :     0.053307
      dxz     :     0.003545
      dyz     :     0.009510
      dx2y2   :     0.011468
      dxy     :     0.008689

 27 H s       :     0.880438  s :     0.880438

 28 H s       :     0.880610  s :     0.880610

 29 H s       :     0.864501  s :     0.864501

 30 H s       :     0.859942  s :     0.859942

 31 H s       :     0.850190  s :     0.850190

 32 H s       :     0.859871  s :     0.859871

 33 H s       :     0.851685  s :     0.851685

 34 H s       :     0.849957  s :     0.849957

 35 H s       :     0.860550  s :     0.860550

 36 H s       :     0.848448  s :     0.848448

 37 H s       :     0.866182  s :     0.866182

 38 H s       :     0.868129  s :     0.868129

 39 H s       :     0.673102  s :     0.673102

 40 H s       :     0.879220  s :     0.879220

 41 H s       :     0.864863  s :     0.864863

 42 H s       :     0.879184  s :     0.879184

 43 H s       :     0.855284  s :     0.855284

 44 H s       :     0.861647  s :     0.861647

 45 H s       :     0.867005  s :     0.867005

 46 H s       :     0.672721  s :     0.672721



                      *****************************
                      * MAYER POPULATION ANALYSIS *
                      *****************************

  NA   - Mulliken gross atomic population
  ZA   - Total nuclear charge
  QA   - Mulliken gross atomic charge
  VA   - Mayer's total valence
  BVA  - Mayer's bonded valence
  FA   - Mayer's free valence

  ATOM       NA         ZA         QA         VA         BVA        FA
  0 C      6.2106     6.0000    -0.2106     3.7778     3.7778    -0.0000
  1 O      8.4791     8.0000    -0.4791     2.0137     2.0137     0.0000
  2 C      5.6627     6.0000     0.3373     3.8147     3.8147    -0.0000
  3 C      6.2728     6.0000    -0.2728     3.8742     3.8742    -0.0000
  4 C      5.8617     6.0000     0.1383     3.9655     3.9655     0.0000
  5 C      6.1452     6.0000    -0.1452     3.8875     3.8875     0.0000
  6 C      6.1938     6.0000    -0.1938     3.8234     3.8234     0.0000
  7 C      5.6089     6.0000     0.3911     3.9536     3.9536    -0.0000
  8 O      8.4341     8.0000    -0.4341     2.0787     2.0787    -0.0000
  9 C      6.4464     6.0000    -0.4464     3.7386     3.7386    -0.0000
 10 C      5.6086     6.0000     0.3914     3.9578     3.9578    -0.0000
 11 O      8.4304     8.0000    -0.4304     2.0844     2.0844    -0.0000
 12 C      6.1946     6.0000    -0.1946     3.8159     3.8159     0.0000
 13 C      6.1469     6.0000    -0.1469     3.8892     3.8892     0.0000
 14 C      5.8615     6.0000     0.1385     3.9690     3.9690     0.0000
 15 C      6.1852     6.0000    -0.1852     3.9390     3.9390     0.0000
 16 C      6.2137     6.0000    -0.2137     3.9066     3.9066     0.0000
 17 C      5.6813     6.0000     0.3187     3.8329     3.8329    -0.0000
 18 O      8.6269     8.0000    -0.6269     1.8811     1.8811     0.0000
 19 C      5.6599     6.0000     0.3401     3.8085     3.8085     0.0000
 20 O      8.4799     8.0000    -0.4799     2.0127     2.0127     0.0000
 21 C      6.2120     6.0000    -0.2120     3.7755     3.7755     0.0000
 22 C      6.2670     6.0000    -0.2670     3.8773     3.8773     0.0000
 23 C      6.1772     6.0000    -0.1772     3.9415     3.9415     0.0000
 24 C      6.2145     6.0000    -0.2145     3.9030     3.9030    -0.0000
 25 C      5.6795     6.0000     0.3205     3.8319     3.8319     0.0000
 26 O      8.6273     8.0000    -0.6273     1.8808     1.8808     0.0000
 27 H      0.8476     1.0000     0.1524     0.9282     0.9282    -0.0000
 28 H      0.8482     1.0000     0.1518     0.9286     0.9286    -0.0000
 29 H      0.8292     1.0000     0.1708     0.9303     0.9303    -0.0000
 30 H      0.8587     1.0000     0.1413     0.9431     0.9431     0.0000
 31 H      0.8325     1.0000     0.1675     0.9423     0.9423     0.0000
 32 H      0.8508     1.0000     0.1492     0.9422     0.9422     0.0000
 33 H      0.8275     1.0000     0.1725     0.9339     0.9339     0.0000
 34 H      0.8257     1.0000     0.1743     0.9327     0.9327     0.0000
 35 H      0.8518     1.0000     0.1482     0.9437     0.9437    -0.0000
 36 H      0.8295     1.0000     0.1705     0.9417     0.9417    -0.0000
 37 H      0.8688     1.0000     0.1312     0.9392     0.9392     0.0000
 38 H      0.8741     1.0000     0.1259     0.9400     0.9400    -0.0000
 39 H      0.5862     1.0000     0.4138     0.8003     0.8003    -0.0000
 40 H      0.8455     1.0000     0.1545     0.9282     0.9282    -0.0000
 41 H      0.8300     1.0000     0.1700     0.9304     0.9304     0.0000
 42 H      0.8454     1.0000     0.1546     0.9280     0.9280     0.0000
 43 H      0.8491     1.0000     0.1509     0.9451     0.9451     0.0000
 44 H      0.8600     1.0000     0.1400     0.9413     0.9413     0.0000
 45 H      0.8719     1.0000     0.1281     0.9398     0.9398    -0.0000
 46 H      0.5856     1.0000     0.4144     0.7999     0.7999     0.0000

  Mayer bond orders larger than 0.100000
B(  0-C ,  1-O ) :   0.9290 B(  0-C , 27-H ) :   0.9288 B(  0-C , 28-H ) :   0.9289 
B(  0-C , 29-H ) :   0.9483 B(  1-O ,  2-C ) :   0.9687 B(  2-C ,  3-C ) :   1.3848 
B(  2-C , 25-C ) :   1.3140 B(  3-C ,  4-C ) :   1.3481 B(  3-C , 30-H ) :   0.9104 
B(  4-C ,  5-C ) :   1.0467 B(  4-C , 23-C ) :   1.4234 B(  5-C ,  6-C ) :   1.7561 
B(  5-C , 31-H ) :   0.9066 B(  6-C ,  7-C ) :   1.0393 B(  6-C , 32-H ) :   0.9172 
B(  7-C ,  8-O ) :   1.8812 B(  7-C ,  9-C ) :   0.9429 B(  9-C , 10-C ) :   0.9439 
B(  9-C , 33-H ) :   0.9188 B(  9-C , 34-H ) :   0.9175 B( 10-C , 11-O ) :   1.8885 
B( 10-C , 12-C ) :   1.0366 B( 12-C , 13-C ) :   1.7524 B( 12-C , 35-H ) :   0.9166 
B( 13-C , 14-C ) :   1.0502 B( 13-C , 36-H ) :   0.9072 B( 14-C , 15-C ) :   1.4015 
B( 14-C , 22-C ) :   1.3712 B( 15-C , 16-C ) :   1.4218 B( 15-C , 37-H ) :   0.9243 
B( 16-C , 17-C ) :   1.3993 B( 16-C , 38-H ) :   0.9212 B( 17-C , 18-O ) :   0.9748 
B( 17-C , 19-C ) :   1.3132 B( 18-O , 39-H ) :   0.7743 B( 19-C , 20-O ) :   0.9686 
B( 19-C , 22-C ) :   1.3807 B( 20-O , 21-C ) :   0.9265 B( 21-C , 40-H ) :   0.9288 
B( 21-C , 41-H ) :   0.9483 B( 21-C , 42-H ) :   0.9289 B( 22-C , 43-H ) :   0.9039 
B( 23-C , 24-C ) :   1.4194 B( 23-C , 44-H ) :   0.9186 B( 24-C , 25-C ) :   1.3982 
B( 24-C , 45-H ) :   0.9208 B( 25-C , 26-O ) :   0.9746 B( 26-O , 46-H ) :   0.7739 


-------
TIMINGS
-------

Total SCF time: 0 days 0 hours 5 min 48 sec 

Total time                  ....     348.793 sec
Sum of individual times     ....     334.903 sec  ( 96.0%)

SCF preparation             ....       0.242 sec  (  0.1%)
Fock matrix formation       ....     332.560 sec  ( 95.3%)
  Startup                   ....       0.025 sec  (  0.0% of F)
  Split-RI-J                ....      41.557 sec  ( 12.5% of F)
  Chain of spheres X        ....     255.230 sec  ( 76.7% of F)
  XC integration            ....      49.085 sec  ( 14.8% of F)
    Basis function eval.    ....      17.973 sec  ( 36.6% of XC)
    Density eval.           ....      11.225 sec  ( 22.9% of XC)
    XC-Functional eval.     ....       1.661 sec  (  3.4% of XC)
    XC-Potential eval.      ....      15.389 sec  ( 31.4% of XC)
Diagonalization             ....       0.000 sec  (  0.0%)
Density matrix formation    ....       0.329 sec  (  0.1%)
Total Energy calculation    ....       0.185 sec  (  0.1%)
Population analysis         ....       0.092 sec  (  0.0%)
Orbital Transformation      ....       0.196 sec  (  0.1%)
Orbital Orthonormalization  ....       0.000 sec  (  0.0%)
DIIS solution               ....       0.815 sec  (  0.2%)
SOSCF solution              ....       0.484 sec  (  0.1%)
Finished LeanSCF after 348.9 sec

Maximum memory used throughout the entire LEANSCF-calculation: 59.0 MB

-------------------------   --------------------
FINAL SINGLE POINT ENERGY     -1262.797538737849
-------------------------   --------------------

------------------------------------------------------------------------------
                         ORCA SCF GRADIENT CALCULATION
------------------------------------------------------------------------------

Nuc. rep. gradient        (SHARK) ... done (  0.0 sec)
HCore & Overlap gradient  (SHARK) ... done (  2.4 sec)
Split-RIJ-J gradient      (SHARK) ... done ( 11.1 sec)
COSX-gradient                     ... done (118.8 sec)
XC gradient                       ... done ( 25.6 sec)

------------------
CARTESIAN GRADIENT
------------------

   1   C   :    0.000030694    0.003855008    0.000254618
   2   O   :   -0.000526828   -0.001199302    0.002064646
   3   C   :    0.002531719    0.000286728   -0.014530305
   4   C   :    0.002180225    0.006649998    0.002186195
   5   C   :    0.004418853   -0.004563952    0.001133501
   6   C   :   -0.002344966    0.013972989    0.005238860
   7   C   :    0.001835559   -0.017877963   -0.004414060
   8   C   :    0.018231286    0.014268130   -0.005619356
   9   O   :   -0.005206298   -0.001706904    0.002428894
  10   C   :   -0.023853985   -0.004935520   -0.014241689
  11   C   :    0.006973941   -0.008723065    0.022101663
  12   O   :   -0.000018721    0.000335193   -0.006668387
  13   C   :   -0.010034575    0.015853975   -0.000399433
  14   C   :    0.009484053   -0.010998182   -0.003014816
  15   C   :   -0.002810884    0.002180990    0.008208837
  16   C   :    0.001871846   -0.003733903    0.004564050
  17   C   :   -0.007697419    0.013288335   -0.003803955
  18   C   :    0.001605445   -0.023966490    0.012428849
  19   O   :    0.005860110    0.006302747   -0.007262848
  20   C   :    0.002951478    0.010396138   -0.009259594
  21   O   :   -0.001763638   -0.001030522    0.002686020
  22   C   :    0.003043335   -0.001629474   -0.001292035
  23   C   :    0.002622368   -0.004007092   -0.003703570
  24   C   :   -0.004288505    0.000000306    0.004577925
  25   C   :    0.001833921   -0.011491453   -0.011551396
  26   C   :   -0.005449918    0.009300694    0.024887461
  27   O   :    0.002650004    0.003825833   -0.010356627
  28   H   :    0.000414382   -0.003942516   -0.001335543
  29   H   :   -0.000071435   -0.003934699   -0.001335456
  30   H   :   -0.001170187    0.001105995    0.005056730
  31   H   :    0.000157193    0.001633183    0.000663083
  32   H   :   -0.003348217   -0.004405654   -0.002521196
  33   H   :   -0.000900053    0.002572034    0.001246112
  34   H   :    0.001516790    0.001483145    0.005297474
  35   H   :    0.005755607   -0.000178362   -0.001078301
  36   H   :    0.001909993   -0.001974303   -0.000762542
  37   H   :   -0.004920098    0.001662450   -0.002779690
  38   H   :    0.000338791    0.001769511   -0.000873809
  39   H   :    0.002519141   -0.002732400   -0.000399963
  40   H   :   -0.001595318    0.001347701    0.000253189
  41   H   :   -0.002737769    0.003117521    0.000640821
  42   H   :   -0.000305904   -0.004556806    0.002805117
  43   H   :   -0.003119783    0.002723981    0.000067913
  44   H   :    0.000487600   -0.000922535    0.000379614
  45   H   :    0.000744070   -0.000649012   -0.002629198
  46   H   :    0.000220434    0.003262944    0.001190060
  47   H   :   -0.000024340   -0.002035421   -0.000527861

Difference to translation invariance:
           :   -0.0000000001   -0.0000000001   -0.0000000000

Difference to rotation invariance:
           :   -0.0001524022    0.0003579506   -0.0000089408

Norm of the Cartesian gradient     ...    0.0808162887
RMS gradient                       ...    0.0068059593
MAX gradient                       ...    0.0248874607

-------
TIMINGS
-------

Total SCF gradient time     ....      157.887 sec

Densities                   ....       0.006 sec  (  0.0%)
One electron gradient       ....       2.351 sec  (  1.5%)
RI-J Coulomb gradient       ....      11.062 sec  (  7.0%)
COSX gradient               ....     118.829 sec  ( 75.3%)
XC gradient                 ....      25.637 sec  ( 16.2%)

Maximum memory used throughout the entire SCFGRAD-calculation: 66.6 MB
------------------------------------------------------------------------------
                         ORCA GEOMETRY RELAXATION STEP
------------------------------------------------------------------------------

Reading the OPT-File                    .... done
Getting information on internals        .... done
Copying old internal coords+grads       .... done
Making the new internal coordinates     .... (2022 redundants) done
Validating the new internal coordinates .... (2022 redundants) done
Calculating the B-matrix                .... done
Calculating the G,G- and P matrices     .... done
Transforming gradient to internals      .... done
Projecting the internal gradient        .... done
Number of atoms                         ....  47
Number of internal coordinates          .... 220
Current Energy                          .... -1262.797538738 Eh
Current gradient norm                   ....     0.080816289 Eh/bohr
Maximum allowed component of the step   ....  0.300
Current trust radius                    ....  0.300
Evaluating the initial hessian          ....  (Almloef) done
Projecting the Hessian                  .... done
Forming the augmented Hessian           .... done
Diagonalizing the augmented Hessian     .... done
Last element of RFO vector              ....  0.943102513
Lowest eigenvalues of augmented Hessian:
 -0.008970298  0.012682989  0.012732088  0.012775848  0.012785048
Length of the computed step             ....  0.352561997
Warning: the length of the step is outside the trust region - taking restricted step instead
The input lambda is                     ....     0.011681
   iter:   5  x=   -0.002194  g=   68.397315 f(x)=     0.341409
   iter:  10  x=   -0.014007  g=    5.122936 f(x)=     0.000007
The output lambda is                    ....    -0.014007 (12 iterations)
The final length of the internal step   ....  0.300000000
Converting the step to Cartesian space:
 Initial RMS(Int)=    0.0202259959
Transforming coordinates:
 Iter   0:  RMS(Cart)=    0.1552192273 RMS(Int)=    1.2683153846
 Iter   5:  RMS(Cart)=    0.0000004587 RMS(Int)=    0.0000001353
done
Storing new coordinates                 .... done

                                .--------------------.
          ----------------------|Geometry convergence|-------------------------
          Item                value                   Tolerance       Converged
          ---------------------------------------------------------------------
          RMS gradient        0.0035113791            0.0001000000      NO
          MAX gradient        0.0153927145            0.0003000000      NO
          RMS step            0.0202259959            0.0020000000      NO
          MAX step            0.1095185958            0.0040000000      NO
          -------------------------------------------------------------------------
          ........................................................
          Max(Bonds)      0.0190      Max(Angles)    1.99
          Max(Dihed)        6.27      Max(Improp)    0.00
          ---------------------------------------------------------------------

The optimization has not yet converged - more geometry cycles are needed


    ---------------------------------------------------------------------------
                         Redundant Internal Coordinates
                            (Angstroem and degrees)

        Definition                    Value    dE/dq     Step     New-Value
    ----------------------------------------------------------------------------
     1. B(O   1,C   0)                1.4200  0.002474 -0.0025    1.4174   
     2. B(C   2,O   1)                1.3703  0.006105 -0.0052    1.3650   
     3. B(C   3,C   2)                1.3995  0.003778 -0.0032    1.3962   
     4. B(C   4,C   3)                1.4048 -0.005203  0.0045    1.4093   
     5. B(C   5,C   4)                1.4693 -0.001531  0.0017    1.4710   
     6. B(C   6,C   5)                1.3410 -0.007092  0.0049    1.3459   
     7. B(C   7,C   6)                1.4899  0.003414 -0.0040    1.4859   
     8. B(O   8,C   7)                1.2297  0.005153 -0.0027    1.2271   
     9. B(C   9,C   7)                1.5021 -0.015111  0.0187    1.5208   
    10. B(C  10,C   9)                1.5020 -0.015387  0.0190    1.5210   
    11. B(O  11,C  10)                1.2296  0.005934 -0.0031    1.2265   
    12. B(C  12,C  10)                1.4900  0.003601 -0.0043    1.4858   
    13. B(C  13,C  12)                1.3410 -0.007295  0.0051    1.3460   
    14. B(C  14,C  13)                1.4693 -0.001560  0.0017    1.4710   
    15. B(C  15,C  14)                1.4000 -0.001891  0.0016    1.4016   
    16. B(C  16,C  15)                1.3954 -0.000604  0.0005    1.3959   
    17. B(C  17,C  16)                1.3938 -0.002897  0.0025    1.3963   
    18. B(O  18,C  17)                1.3696  0.002532 -0.0022    1.3675   
    19. B(C  19,C  17)                1.4014 -0.006859  0.0060    1.4074   
    20. B(O  20,C  19)                1.3704  0.006820 -0.0059    1.3645   
    21. B(C  21,O  20)                1.4202  0.002044 -0.0021    1.4181   
    22. B(C  22,C  19)                1.3997  0.003733 -0.0032    1.3965   
    23. B(C  22,C  14)                1.4053 -0.003035  0.0026    1.4079   
    24. B(C  23,C   4)                1.4006  0.000016 -0.0001    1.4005   
    25. B(C  24,C  23)                1.3957 -0.000502  0.0004    1.3961   
    26. B(C  25,C  24)                1.3938 -0.003127  0.0027    1.3965   
    27. B(C  25,C   2)                1.4012 -0.006580  0.0057    1.4070   
    28. B(O  26,C  25)                1.3696  0.002666 -0.0023    1.3673   
    29. B(H  27,C   0)                1.0950 -0.002092  0.0030    1.0980   
    30. B(H  28,C   0)                1.0950 -0.002043  0.0029    1.0979   
    31. B(H  29,C   0)                1.0943  0.001008 -0.0014    1.0928   
    32. B(H  30,C   3)                1.0855  0.000849 -0.0012    1.0843   
    33. B(H  31,C   5)                1.0891  0.000175 -0.0002    1.0889   
    34. B(H  32,C   6)                1.0842 -0.001710  0.0024    1.0865   
    35. B(H  33,C   9)                1.0957 -0.000010  0.0000    1.0958   
    36. B(H  34,C   9)                1.0958 -0.000360  0.0005    1.0963   
    37. B(H  35,C  12)                1.0843 -0.001651  0.0023    1.0866   
    38. B(H  36,C  13)                1.0891  0.000443 -0.0006    1.0885   
    39. B(H  37,C  15)                1.0882  0.000956 -0.0013    1.0868   
    40. B(H  38,C  16)                1.0854 -0.001640  0.0023    1.0877   
    41. B(H  39,O  18)                0.9692  0.000381 -0.0004    0.9689   
    42. B(H  40,C  21)                1.0950 -0.001950  0.0028    1.0978   
    43. B(H  41,C  21)                1.0943  0.001004 -0.0014    1.0928   
    44. B(H  42,C  21)                1.0950 -0.001909  0.0027    1.0977   
    45. B(H  43,C  22)                1.0848  0.000914 -0.0013    1.0836   
    46. B(H  44,C  23)                1.0876  0.001190 -0.0017    1.0860   
    47. B(H  45,C  24)                1.0855 -0.001476  0.0021    1.0875   
    48. B(H  46,O  26)                0.9693  0.000386 -0.0004    0.9689   
    49. A(O   1,C   0,H  28)          111.18 -0.001679    0.23    111.41   
    50. A(H  27,C   0,H  28)          111.22  0.003553   -0.81    110.41   
    51. A(H  28,C   0,H  29)          107.65 -0.003629    0.74    108.39   
    52. A(H  27,C   0,H  29)          107.65 -0.003565    0.73    108.38   
    53. A(O   1,C   0,H  29)          107.81  0.007174   -1.12    106.69   
    54. A(O   1,C   0,H  27)          111.14 -0.001851    0.26    111.40   
    55. A(C   0,O   1,C   2)          117.57  0.000350   -0.05    117.52   
    56. A(O   1,C   2,C   3)          125.07 -0.001532    0.20    125.27   
    57. A(O   1,C   2,C  25)          116.18  0.002966   -0.38    115.80   
    58. A(C   3,C   2,C  25)          118.75 -0.001433    0.18    118.93   
    59. A(C   4,C   3,H  30)          118.39 -0.000288    0.08    118.47   
    60. A(C   2,C   3,H  30)          120.71  0.002861   -0.42    120.30   
    61. A(C   2,C   3,C   4)          120.89 -0.002572    0.33    121.22   
    62. A(C   3,C   4,C  23)          119.20  0.001997   -0.27    118.93   
    63. A(C   3,C   4,C   5)          118.75 -0.002325    0.34    119.09   
    64. A(C   5,C   4,C  23)          122.00  0.000302   -0.02    121.98   
    65. A(C   4,C   5,H  31)          115.93 -0.001928    0.37    116.29   
    66. A(C   4,C   5,C   6)          123.62 -0.007275    0.99    124.61   
    67. A(C   6,C   5,H  31)          120.44  0.009195   -1.34    119.09   
    68. A(C   5,C   6,H  32)          122.69  0.004147   -0.61    122.08   
    69. A(C   7,C   6,H  32)          117.10 -0.000845    0.16    117.26   
    70. A(C   5,C   6,C   7)          120.21 -0.003302    0.45    120.66   
    71. A(O   8,C   7,C   9)          121.12  0.002099   -0.24    120.88   
    72. A(C   6,C   7,C   9)          117.03  0.002699   -0.36    116.67   
    73. A(C   6,C   7,O   8)          121.82 -0.004827    0.63    122.45   
    74. A(H  33,C   9,H  34)          105.75 -0.004827    1.71    107.47   
    75. A(C   7,C   9,H  34)          109.39  0.003093   -0.69    108.70   
    76. A(C   7,C   9,C  10)          111.45  0.002362   -0.71    110.74   
    77. A(C  10,C   9,H  34)          110.30 -0.001056    0.07    110.37   
    78. A(C   7,C   9,H  33)          110.40 -0.002274    0.35    110.75   
    79. A(C  10,C   9,H  33)          109.39  0.002316   -0.61    108.78   
    80. A(O  11,C  10,C  12)          121.84 -0.005139    0.67    122.51   
    81. A(C   9,C  10,C  12)          116.99  0.003276   -0.45    116.54   
    82. A(C   9,C  10,O  11)          121.15  0.001842   -0.21    120.93   
    83. A(C  10,C  12,H  35)          117.01 -0.000685    0.13    117.15   
    84. A(C  13,C  12,H  35)          122.70  0.004075   -0.60    122.10   
    85. A(C  10,C  12,C  13)          120.29 -0.003390    0.46    120.75   
    86. A(C  14,C  13,H  36)          115.97 -0.001529    0.30    116.27   
    87. A(C  12,C  13,H  36)          120.47  0.008939   -1.30    119.16   
    88. A(C  12,C  13,C  14)          123.56 -0.007417    1.01    124.56   
    89. A(C  15,C  14,C  22)          119.21  0.001956   -0.27    118.94   
    90. A(C  13,C  14,C  22)          122.11  0.002725   -0.34    121.76   
    91. A(C  13,C  14,C  15)          118.64 -0.004715    0.66    119.30   
    92. A(C  16,C  15,H  37)          119.02 -0.002102    0.33    119.35   
    93. A(C  14,C  15,H  37)          120.46  0.001453   -0.23    120.23   
    94. A(C  14,C  15,C  16)          120.52  0.000651   -0.10    120.42   
    95. A(C  17,C  16,H  38)          121.22  0.005582   -0.83    120.39   
    96. A(C  15,C  16,H  38)          119.20 -0.001298    0.24    119.44   
    97. A(C  15,C  16,C  17)          119.59 -0.004284    0.59    120.18   
    98. A(O  18,C  17,C  19)          119.24  0.009196   -1.20    118.04   
    99. A(C  16,C  17,C  19)          121.06  0.006095   -0.78    120.28   
   100. A(C  16,C  17,O  18)          119.70 -0.015291    1.98    121.67   
   101. A(C  17,O  18,H  39)          109.19  0.003787   -0.57    108.62   
   102. A(O  20,C  19,C  22)          125.04 -0.000890    0.12    125.16   
   103. A(C  17,C  19,C  22)          118.78 -0.002199    0.28    119.06   
   104. A(C  17,C  19,O  20)          116.17  0.003089   -0.40    115.77   
   105. A(C  19,O  20,C  21)          117.59  0.000501   -0.07    117.52   
   106. A(H  41,C  21,H  42)          107.65 -0.003631    0.74    108.39   
   107. A(H  40,C  21,H  42)          111.23  0.003649   -0.83    110.40   
   108. A(H  40,C  21,H  41)          107.65 -0.003633    0.75    108.40   
   109. A(O  20,C  21,H  41)          107.81  0.007253   -1.13    106.67   
   110. A(O  20,C  21,H  40)          111.16 -0.001859    0.26    111.42   
   111. A(O  20,C  21,H  42)          111.15 -0.001776    0.24    111.40   
   112. A(C  14,C  22,C  19)          120.82 -0.002219    0.28    121.10   
   113. A(C  19,C  22,H  43)          120.43  0.001733   -0.24    120.19   
   114. A(C  14,C  22,H  43)          118.74  0.000487   -0.04    118.70   
   115. A(C   4,C  23,C  24)          120.45  0.001017   -0.16    120.30   
   116. A(C  24,C  23,H  44)          118.71 -0.003115    0.49    119.19   
   117. A(C   4,C  23,H  44)          120.83  0.002100   -0.33    120.50   
   118. A(C  25,C  24,H  45)          121.19  0.005737   -0.84    120.34   
   119. A(C  23,C  24,H  45)          119.18 -0.000686    0.16    119.33   
   120. A(C  23,C  24,C  25)          119.63 -0.005051    0.69    120.32   
   121. A(C  24,C  25,O  26)          119.70 -0.015393    1.99    121.69   
   122. A(C   2,C  25,O  26)          119.25  0.009352   -1.22    118.03   
   123. A(C   2,C  25,C  24)          121.06  0.006042   -0.77    120.28   
   124. A(C  25,O  26,H  46)          109.20  0.003783   -0.57    108.63   
   125. D(C   2,O   1,C   0,H  27)    -62.74 -0.001014    0.34    -62.40   
   126. D(C   2,O   1,C   0,H  28)     61.73  0.001010   -0.35     61.37   
   127. D(C   2,O   1,C   0,H  29)    179.50  0.000011   -0.01    179.50   
   128. D(C   3,C   2,O   1,C   0)      0.88  0.000078   -0.11      0.77   
   129. D(C  25,C   2,O   1,C   0)   -179.09 -0.000010    0.02   -179.07   
   130. D(H  30,C   3,C   2,C  25)    179.96  0.000046   -0.05    179.90   
   131. D(C   4,C   3,C   2,C  25)     -0.57  0.000306   -0.43     -1.00   
   132. D(H  30,C   3,C   2,O   1)     -0.01 -0.000045    0.08      0.07   
   133. D(C   4,C   3,C   2,O   1)    179.46  0.000215   -0.29    179.17   
   134. D(C  23,C   4,C   3,C   2)      1.36 -0.000159    0.18      1.53   
   135. D(C  23,C   4,C   3,H  30)   -179.16  0.000111   -0.19   -179.35   
   136. D(C   5,C   4,C   3,H  30)     -1.61 -0.000545    0.87     -0.74   
   137. D(C   5,C   4,C   3,C   2)    178.90 -0.000815    1.24    180.14   
   138. D(C   6,C   5,C   4,C   3)    142.07 -0.002260    4.53    146.60   
   139. D(C   6,C   5,C   4,C  23)    -40.45 -0.002894    5.62    -34.84   
   140. D(H  31,C   5,C   4,C   3)    -36.68 -0.001986    4.08    -32.60   
   141. D(H  31,C   5,C   4,C  23)    140.80 -0.002621    5.16    145.96   
   142. D(H  32,C   6,C   5,C   4)     -0.02  0.000602   -0.66     -0.68   
   143. D(H  32,C   6,C   5,H  31)    178.67  0.000173   -0.16    178.51   
   144. D(C   7,C   6,C   5,H  31)     -1.08  0.000203   -0.20     -1.28   
   145. D(C   7,C   6,C   5,C   4)   -179.77  0.000632   -0.69   -180.47   
   146. D(C   9,C   7,C   6,H  32)     -1.41  0.000551   -0.63     -2.04   
   147. D(C   9,C   7,C   6,C   5)    178.35  0.000535   -0.60    177.76   
   148. D(O   8,C   7,C   6,H  32)    176.68 -0.000375    0.25    176.93   
   149. D(O   8,C   7,C   6,C   5)     -3.55 -0.000390    0.28     -3.27   
   150. D(H  34,C   9,C   7,C   6)   -151.60  0.003094   -1.68   -153.28   
   151. D(H  33,C   9,C   7,O   8)    146.27 -0.001184   -0.70    145.57   
   152. D(H  33,C   9,C   7,C   6)    -35.63 -0.002243    0.19    -35.44   
   153. D(C  10,C   9,C   7,O   8)    -91.95  0.001796   -1.71    -93.66   
   154. D(C  10,C   9,C   7,C   6)     86.16  0.000737   -0.82     85.33   
   155. D(O  11,C  10,C   9,C   7)    -96.54  0.001753   -1.33    -97.87   
   156. D(C  12,C  10,C   9,H  33)   -155.89  0.001174   -1.67   -157.56   
   157. D(C  12,C  10,C   9,C   7)     81.75  0.000882   -1.22     80.52   
   158. D(O  11,C  10,C   9,H  34)    141.75 -0.003048   -0.02    141.73   
   159. D(O  11,C  10,C   9,H  33)     25.83  0.002045   -1.78     24.05   
   160. D(H  35,C  12,C  10,C   9)     -0.62  0.000636   -0.59     -1.21   
   161. D(H  35,C  12,C  10,O  11)    177.65 -0.000111   -0.50    177.15   
   162. D(C  13,C  12,C  10,C   9)    179.36  0.000589   -0.52    178.84   
   163. D(C  13,C  12,C  10,O  11)     -2.37 -0.000159   -0.43     -2.80   
   164. D(H  36,C  13,C  12,H  35)    178.69  0.000068   -0.04    178.65   
   165. D(H  36,C  13,C  12,C  10)     -1.29  0.000120   -0.11     -1.40   
   166. D(C  14,C  13,C  12,H  35)     -0.04  0.000490   -0.53     -0.58   
   167. D(C  14,C  13,C  12,C  10)    179.98  0.000542   -0.61    179.37   
   168. D(C  22,C  14,C  13,C  12)    -40.49 -0.003248    6.27    -34.22   
   169. D(C  22,C  14,C  13,H  36)    140.72 -0.002971    5.82    146.54   
   170. D(C  15,C  14,C  13,C  12)    142.01 -0.002386    4.81    146.82   
   171. D(C  15,C  14,C  13,H  36)    -36.78 -0.002109    4.36    -32.42   
   172. D(H  37,C  15,C  14,C  22)   -179.08  0.000111   -0.23   -179.31   
   173. D(H  37,C  15,C  14,C  13)     -1.50 -0.000699    1.18     -0.32   
   174. D(C  16,C  15,C  14,C  22)      1.44 -0.000193    0.25      1.69   
   175. D(C  16,C  15,C  14,C  13)    179.01 -0.001003    1.67    180.68   
   176. D(H  38,C  16,C  15,H  37)      0.01 -0.000133    0.21      0.22   
   177. D(H  38,C  16,C  15,C  14)    179.49  0.000185   -0.27    179.23   
   178. D(C  17,C  16,C  15,H  37)    179.94  0.000103   -0.08    179.86   
   179. D(C  17,C  16,C  15,C  14)     -0.57  0.000421   -0.56     -1.13   
   180. D(C  19,C  17,C  16,H  38)    179.61 -0.000042    0.09    179.69   
   181. D(C  19,C  17,C  16,C  15)     -0.33 -0.000279    0.39      0.06   
   182. D(O  18,C  17,C  16,H  38)     -0.14 -0.000233    0.32      0.18   
   183. D(O  18,C  17,C  16,C  15)    179.92 -0.000470    0.62    180.55   
   184. D(H  39,O  18,C  17,C  19)   -179.22 -0.000042    0.05   -179.18   
   185. D(H  39,O  18,C  17,C  16)      0.53  0.000138   -0.18      0.35   
   186. D(O  20,C  19,C  17,O  18)      0.27 -0.000043    0.04      0.31   
   187. D(O  20,C  19,C  17,C  16)   -179.48 -0.000171    0.26   -179.21   
   188. D(C  22,C  19,C  17,O  18)   -179.92  0.000059   -0.13   -180.06   
   189. D(C  22,C  19,C  17,C  16)      0.33 -0.000069    0.09      0.42   
   190. D(C  21,O  20,C  19,C  22)     -0.50 -0.000125    0.19     -0.31   
   191. D(C  21,O  20,C  19,C  17)    179.29 -0.000017    0.01    179.30   
   192. D(H  42,C  21,O  20,C  19)    -62.18 -0.001007    0.32    -61.86   
   193. D(H  41,C  21,O  20,C  19)   -179.94  0.000005   -0.03   -179.97   
   194. D(H  40,C  21,O  20,C  19)     62.30  0.001066   -0.39     61.90   
   195. D(H  43,C  22,C  19,O  20)      1.17  0.000359   -0.50      0.67   
   196. D(H  43,C  22,C  19,C  17)   -178.62  0.000239   -0.30   -178.92   
   197. D(C  14,C  22,C  19,O  20)   -179.65  0.000391   -0.59   -180.24   
   198. D(C  14,C  22,C  19,C  17)      0.56  0.000271   -0.40      0.16   
   199. D(H  43,C  22,C  14,C  15)    177.75 -0.000085    0.14    177.89   
   200. D(H  43,C  22,C  14,C  13)      0.27  0.000943   -1.36     -1.09   
   201. D(C  19,C  22,C  14,C  15)     -1.44 -0.000126    0.23     -1.21   
   202. D(C  19,C  22,C  14,C  13)   -178.93  0.000901   -1.26   -180.19   
   203. D(H  44,C  23,C   4,C   5)      0.39  0.000701   -1.07     -0.68   
   204. D(H  44,C  23,C   4,C   3)    177.86 -0.000042    0.04    177.90   
   205. D(C  24,C  23,C   4,C   5)   -178.78  0.000561   -0.84   -179.62   
   206. D(C  24,C  23,C   4,C   3)     -1.31 -0.000182    0.26     -1.05   
   207. D(H  45,C  24,C  23,H  44)      0.93  0.000147   -0.22      0.71   
   208. D(H  45,C  24,C  23,C   4)   -179.88  0.000325   -0.45   -180.33   
   209. D(C  25,C  24,C  23,H  44)   -178.69  0.000105   -0.20   -178.89   
   210. D(C  25,C  24,C  23,C   4)      0.49  0.000283   -0.43      0.07   
   211. D(O  26,C  25,C  24,H  45)      0.42 -0.000008    0.04      0.46   
   212. D(O  26,C  25,C  24,C  23)   -179.96  0.000009    0.02   -179.94   
   213. D(C   2,C  25,C  24,H  45)   -179.31 -0.000144    0.19   -179.12   
   214. D(C   2,C  25,C  24,C  23)      0.31 -0.000127    0.17      0.47   
   215. D(O  26,C  25,C   2,C   3)   -180.00 -0.000240    0.40   -179.60   
   216. D(O  26,C  25,C   2,O   1)     -0.03 -0.000158    0.27      0.24   
   217. D(C  24,C  25,C   2,C   3)     -0.27 -0.000170    0.26     -0.01   
   218. D(C  24,C  25,C   2,O   1)    179.70 -0.000088    0.13    179.84   
   219. D(H  46,O  26,C  25,C  24)     -0.62 -0.000127    0.16     -0.46   
   220. D(H  46,O  26,C  25,C   2)    179.11 -0.000001    0.02    179.13   
    ----------------------------------------------------------------------------

Geometry step timings:
Preparation and reading OPT file:      0.008 s (21.622 %)
Internal coordinates            :      0.000 s ( 0.000 %)
B/P matrices and projection     :      0.007 s (18.919 %)
Hessian update/contruction      :      0.005 s (13.514 %)
Making the step                 :      0.012 s (32.432 %)
Converting the step to Cartesian:      0.001 s ( 2.703 %)
Storing new data                :      0.000 s ( 0.000 %)
Checking convergence            :      0.000 s ( 0.000 %)
Final printing                  :      0.004 s (10.811 %)
Total time                      :      0.037 s

Time for energy+gradient        :    522.768 s
Time for complete geometry iter :    523.008 s

         *************************************************************
         *                GEOMETRY OPTIMIZATION CYCLE   2            *
         *************************************************************
---------------------------------
CARTESIAN COORDINATES (ANGSTROEM)
---------------------------------
  C     -0.225441   -8.006664    2.584634
  O      0.181499   -8.129663    1.232472
  C      0.450703   -6.979889    0.547759
  C      0.372389   -5.689796    1.075992
  C      0.687050   -4.560065    0.294513
  C      0.591462   -3.222754    0.899783
  C      1.393470   -2.186087    0.593814
  C      1.211949   -0.867129    1.253564
  O      0.303206   -0.648038    2.048465
  C      2.201284    0.225344    0.878781
  C      1.752101    0.949356   -0.381213
  O      2.214560    0.652563   -1.477743
  C      0.709539    1.994095   -0.210597
  C      0.266805    2.703409   -1.265419
  C     -0.769042    3.745424   -1.194824
  C     -0.692880    4.847758   -2.057052
  C     -1.655338    5.857262   -2.000348
  C     -2.716981    5.764907   -1.098178
  O     -3.682597    6.730365   -1.024477
  C     -2.823967    4.655165   -0.239270
  O     -3.905549    4.650853    0.592658
  C     -4.058040    3.542136    1.463563
  C     -1.850115    3.655988   -0.297409
  C      1.053278   -4.743455   -1.044766
  C      1.125364   -6.028543   -1.585574
  C      0.831684   -7.142882   -0.796804
  O      0.894399   -8.413772   -1.297305
  H      0.559329   -7.545719    3.198810
  H     -1.161841   -7.440003    2.671329
  H     -0.400510   -9.020482    2.953193
  H      0.079521   -5.538485    2.108955
  H     -0.181713   -3.089163    1.654782
  H      2.195462   -2.272157   -0.134153
  H      3.198175   -0.195909    0.707237
  H      2.281061    0.929315    1.715368
  H      0.327456    2.153849    0.794020
  H      0.698767    2.519266   -2.247382
  H      0.126566    4.932310   -2.765967
  H     -1.573769    6.711766   -2.668320
  H     -3.483759    7.417329   -1.678104
  H     -3.215266    3.462561    2.162527
  H     -4.969076    3.719547    2.040492
  H     -4.179773    2.606263    0.902921
  H     -1.923946    2.785170    0.343156
  H      1.267880   -3.888823   -1.679505
  H      1.406104   -6.152534   -2.628919
  H      1.154439   -8.366796   -2.229464

----------------------------
CARTESIAN COORDINATES (A.U.)
----------------------------
  NO LB      ZA    FRAG     MASS         X           Y           Z
   0 C     6.0000    0    12.011   -0.426021  -15.130403    4.884250
   1 O     8.0000    0    15.999    0.342984  -15.362837    2.329035
   2 C     6.0000    0    12.011    0.851705  -13.190079    1.035114
   3 C     6.0000    0    12.011    0.703714  -10.752155    2.033331
   4 C     6.0000    0    12.011    1.298337   -8.617275    0.556549
   5 C     6.0000    0    12.011    1.117702   -6.090122    1.700344
   6 C     6.0000    0    12.011    2.633277   -4.131106    1.122146
   7 C     6.0000    0    12.011    2.290252   -1.638637    2.368893
   8 O     8.0000    0    15.999    0.572976   -1.224614    3.871038
   9 C     6.0000    0    12.011    4.159823    0.425838    1.660655
  10 C     6.0000    0    12.011    3.310991    1.794022   -0.720387
  11 O     8.0000    0    15.999    4.184912    1.233166   -2.792530
  12 C     6.0000    0    12.011    1.340834    3.768294   -0.397971
  13 C     6.0000    0    12.011    0.504189    5.108703   -2.391295
  14 C     6.0000    0    12.011   -1.453278    7.077825   -2.257890
  15 C     6.0000    0    12.011   -1.309354    9.160934   -3.887265
  16 C     6.0000    0    12.011   -3.128136   11.068621   -3.780111
  17 C     6.0000    0    12.011   -5.134351   10.894096   -2.075256
  18 O     8.0000    0    15.999   -6.959100   12.718547   -1.935981
  19 C     6.0000    0    12.011   -5.336524    8.796987   -0.452154
  20 O     8.0000    0    15.999   -7.380417    8.788839    1.119961
  21 C     6.0000    0    12.011   -7.668584    6.693667    2.765732
  22 C     6.0000    0    12.011   -3.496211    6.908817   -0.562021
  23 C     6.0000    0    12.011    1.990408   -8.963831   -1.974323
  24 C     6.0000    0    12.011    2.126630  -11.392295   -2.996301
  25 C     6.0000    0    12.011    1.571655  -13.498091   -1.505742
  26 O     8.0000    0    15.999    1.690170  -15.899725   -2.451552
  27 H     1.0000    0     1.008    1.056979  -14.259343    6.044875
  28 H     1.0000    0     1.008   -2.195562  -14.059568    5.048081
  29 H     1.0000    0     1.008   -0.756854  -17.046241    5.580727
  30 H     1.0000    0     1.008    0.150274  -10.466221    3.985348
  31 H     1.0000    0     1.008   -0.343388   -5.837673    3.127085
  32 H     1.0000    0     1.008    4.148822   -4.293755   -0.253513
  33 H     1.0000    0     1.008    6.043675   -0.370215    1.336485
  34 H     1.0000    0     1.008    4.310580    1.756150    3.241575
  35 H     1.0000    0     1.008    0.618801    4.070185    1.500480
  36 H     1.0000    0     1.008    1.320477    4.760724   -4.246936
  37 H     1.0000    0     1.008    0.239176    9.320715   -5.226920
  38 H     1.0000    0     1.008   -2.973993   12.683400   -5.042394
  39 H     1.0000    0     1.008   -6.583351   14.016721   -3.171157
  40 H     1.0000    0     1.008   -6.075971    6.543291    4.086584
  41 H     1.0000    0     1.008   -9.390192    7.028925    3.855971
  42 H     1.0000    0     1.008   -7.898626    4.925123    1.706273
  43 H     1.0000    0     1.008   -3.635731    5.263209    0.648471
  44 H     1.0000    0     1.008    2.395946   -7.348810   -3.173804
  45 H     1.0000    0     1.008    2.657152  -11.626605   -4.967937
  46 H     1.0000    0     1.008    2.181574  -15.810954   -4.213075

--------------------------------
INTERNAL COORDINATES (ANGSTROEM)
--------------------------------
 C      0   0   0     0.000000000000     0.00000000     0.00000000
 O      1   0   0     1.417416680088     0.00000000     0.00000000
 C      2   1   0     1.365021384392   117.51934347     0.00000000
 C      3   2   1     1.396247046187   125.27060561     0.76638525
 C      4   3   2     1.409259217669   121.22396110   179.16831900
 C      5   4   3     1.471017172257   119.08490457   180.14317629
 C      6   5   4     1.345924034793   124.60804243   146.59896862
 C      7   6   5     1.485890259817   120.66142716   179.53569294
 O      8   7   6     1.227062596795   122.45220302   356.73086149
 C      8   7   6     1.520770401596   116.66458628   177.75587749
 C     10   8   7     1.521033352591   110.73067608    85.32902875
 O     11  10   8     1.226513104800   120.93457922   262.13172474
 C     11  10   8     1.485774297987   116.53861468    80.51961273
 C     13  11  10     1.346026648645   120.75419471   178.83771195
 C     14  13  11     1.470971680639   124.56283585   179.37549012
 C     15  14  13     1.401562750204   119.29832693   146.81970345
 C     16  15  14     1.395936772284   120.41919594   180.68360799
 C     17  16  15     1.396254438493   120.17562426   358.87002936
 O     18  17  16     1.367462993517   121.67069076   180.54808394
 C     18  17  16     1.407372319530   120.28412858     0.05839233
 O     20  18  17     1.364529864228   115.77448567   180.78750218
 C     21  20  18     1.418091349106   117.52488108   179.29945682
 C     20  18  17     1.396467541529   119.06282326     0.41936792
 C      5   4   3     1.400508858593   118.92756790     1.53156037
 C     24   5   4     1.396108960157   120.29593708   358.94867851
 C     25  24   5     1.396480470821   120.32157460     0.06769732
 O     26  25  24     1.367331742714   121.68733894   180.05432691
 H      1   2   3     1.097973668122   111.39819044   297.60058914
 H      1   2   3     1.097937663540   111.40591614    61.37544420
 H      1   2   3     1.092845950117   106.69109621   179.49843511
 H      4   3   2     1.084287224386   120.29845795     0.06991264
 H      6   5   4     1.088884806818   116.29358057   327.39607684
 H      7   6   5     1.086524500019   122.08185246   359.32264057
 H     10   8   7     1.095752632409   110.74842540   324.56347612
 H     10   8   7     1.096274021743   108.69772161   206.72110383
 H     13  11  10     1.086630201593   117.14699255   358.79262694
 H     14  13  11     1.088462395273   119.16301580   358.59962227
 H     16  15  14     1.086830908529   120.22744193   359.68329330
 H     17  16  15     1.087665909218   119.43885502   179.22975846
 H     19  18  17     0.968856952647   108.62188076     0.34562649
 H     22  21  20     1.097793913532   111.41629548    61.90128971
 H     22  21  20     1.092844650260   106.67446056   180.02648910
 H     22  21  20     1.097723348350   111.39695233   298.13768746
 H     23  20  18     1.083557987424   120.19179658   181.08108622
 H     24   5   4     1.085975544531   120.50131648   177.89557408
 H     25  24   5     1.087546443900   119.33378430   179.66642144
 H     27  26  25     0.968889355994   108.62732863   359.54163502

---------------------------
INTERNAL COORDINATES (A.U.)
---------------------------
 C      0   0   0     0.000000000000     0.00000000     0.00000000
 O      1   0   0     2.678529343019     0.00000000     0.00000000
 C      2   1   0     2.579516583446   117.51934347     0.00000000
 C      3   2   1     2.638524532591   125.27060561     0.76638525
 C      4   3   2     2.663113973099   121.22396110   179.16831900
 C      5   4   3     2.779819593861   119.08490457   180.14317629
 C      6   5   4     2.543427822821   124.60804243   146.59896862
 C      7   6   5     2.807925656115   120.66142716   179.53569294
 O      8   7   6     2.318812257120   122.45220302   356.73086149
 C      8   7   6     2.873839571589   116.66458628   177.75587749
 C     10   8   7     2.874336476957   110.73067608    85.32902875
 O     11  10   8     2.317773867737   120.93457922   262.13172474
 C     11  10   8     2.807706520015   116.53861468    80.51961273
 C     13  11  10     2.543621734900   120.75419471   178.83771195
 C     14  13  11     2.779733627161   124.56283585   179.37549012
 C     15  14  13     2.648569757390   119.29832693   146.81970345
 C     16  15  14     2.637938199888   120.41919594   180.68360799
 C     17  16  15     2.638538502024   120.17562426   358.87002936
 O     18  17  16     2.584130556019   121.67069076   180.54808394
 C     18  17  16     2.659548252373   120.28412858     0.05839233
 O     20  18  17     2.578587744948   115.77448567   180.78750218
 C     21  20  18     2.679804282692   117.52488108   179.29945682
 C     20  18  17     2.638941208400   119.06282326     0.41936792
 C      5   4   3     2.646578190872   118.92756790     1.53156037
 C     24   5   4     2.638263587810   120.29593708   358.94867851
 C     25  24   5     2.638965641222   120.32157460     0.06769732
 O     26  25  24     2.583882527947   121.68733894   180.05432691
 H      1   2   3     2.074869535007   111.39819044   297.60058914
 H      1   2   3     2.074801496207   111.40591614    61.37544420
 H      1   2   3     2.065179552286   106.69109621   179.49843511
 H      4   3   2     2.049005904600   120.29845795     0.06991264
 H      6   5   4     2.057694076274   116.29358057   327.39607684
 H      7   6   5     2.053233742832   122.08185246   359.32264057
 H     10   8   7     2.070672385777   110.74842540   324.56347612
 H     10   8   7     2.071657668827   108.69772161   206.72110383
 H     13  11  10     2.053433489858   117.14699255   358.79262694
 H     14  13  11     2.056895834137   119.16301580   358.59962227
 H     16  15  14     2.053812771001   120.22744193   359.68329330
 H     17  16  15     2.055390693624   119.43885502   179.22975846
 H     19  18  17     1.830874303447   108.62188076     0.34562649
 H     22  21  20     2.074529848061   111.41629548    61.90128971
 H     22  21  20     2.065177095913   106.67446056   180.02648910
 H     22  21  20     2.074396499192   111.39695233   298.13768746
 H     23  20  18     2.047627846454   120.19179658   181.08108622
 H     24   5   4     2.052196367299   120.50131648   177.89557408
 H     25  24   5     2.055164936890   119.33378430   179.66642144
 H     27  26  25     1.830935536900   108.62732863   359.54163502

------------------------------------------------------------------------------
                   ___                                                        
                  /   \      - P O W E R E D   B Y -                         
                 /     \                                                     
                 |  |  |   _    _      __       _____    __    __             
                 |  |  |  | |  | |    /  \     |  _  \  |  |  /  |          
                  \  \/   | |  | |   /    \    | | | |  |  | /  /          
                 / \  \   | |__| |  /  /\  \   | |_| |  |  |/  /          
                |  |  |   |  __  | /  /__\  \  |    /   |      \           
                |  |  |   | |  | | |   __   |  |    \   |  |\   \          
                \     /   | |  | | |  |  |  |  | |\  \  |  | \   \       
                 \___/    |_|  |_| |__|  |__|  |_| \__\ |__|  \__/        
                                                                              
                      - O R C A' S   B I G   F R I E N D -                    
                                      &                                       
                       - I N T E G R A L  F E E D E R -                       
                                                                              
 v1 FN, 2020, v2 2021, v3 2022-2024                                           
------------------------------------------------------------------------------


----------------------
SHARK INTEGRAL PACKAGE
----------------------

Number of atoms                             ...     47
Number of basis functions                   ...    418
Number of shells                            ...    202
Maximum angular momentum                    ...      2
Integral batch strategy                     ... SHARK/LIBINT Hybrid
RI-J (if used) integral strategy            ... SPLIT-RIJ (Revised 2003 algorithm where possible)
Printlevel                                  ...      1
Contraction scheme used                     ... SEGMENTED contraction
Prescreening option                         ... SCHWARTZ
   Thresh                                   ... 2.500e-11
   Tcut                                     ... 2.500e-12
   Tpresel                                  ... 2.500e-12 
Coulomb Range Separation                    ... NOT USED
Exchange Range Separation                   ... NOT USED
Multipole approximations                    ... NOT USED
Finite Nucleus Model                        ... NOT USED
CABS basis                                  ... NOT available
Auxiliary Coulomb fitting basis             ... AVAILABLE
   # of basis functions in Aux-J            ...   1543
   # of shells in Aux-J                     ...    505
   Maximum angular momentum in Aux-J        ...      4
Auxiliary J/K fitting basis                 ... NOT available
Auxiliary Correlation fitting basis         ... NOT available
Auxiliary 'external' fitting basis          ... NOT available

Checking pre-screening integrals            ... done (  0.0 sec) Dimension = 202
   => SHARK Basis and OBASIS are compatible. Storing Pre-screening
Shell pair information
Shell pair cut-off parameter TPreSel        ...   2.5e-12
Total number of shell pairs                 ...     20503
Shell pairs after pre-screening             ...     10374
Total number of primitive shell pairs       ...    118482
Primitive shell pairs kept                  ...     33301
          la=0 lb=0:   3531 shell pairs
          la=1 lb=0:   3578 shell pairs
          la=1 lb=1:    914 shell pairs
          la=2 lb=0:   1434 shell pairs
          la=2 lb=1:    763 shell pairs
          la=2 lb=2:    154 shell pairs

Checking whether 4 symmetric matrices of dimension 418 fit in memory
:Max Core in MB      =   4096.00
 MB in use           =     16.43
 MB left             =   4079.57
 MB needed           =      2.67
 Data fit in memory  = YES
Calculating RI/J V-Matrix + Cholesky decomp.... done (  0.2 sec)
Calculating Nuclear repulsion               ... done (  0.0 sec) ENN=   2139.438524955764 Eh

Diagonalization of the overlap matrix:
Smallest eigenvalue                        ... 4.207e-04
Time for diagonalization                   ...    0.025 sec
Threshold for overlap eigenvalues          ... 1.000e-07
Number of eigenvalues below threshold      ... 0
Time for construction of square roots      ...    0.017 sec
Total time needed                          ...    0.044 sec

-------------------
DFT GRID GENERATION
-------------------

General Integration Accuracy     IntAcc      ... 4.388
Radial Grid Type                 RadialGrid  ... OptM3 with GC (2021)
Angular Grid (max. ang.)         AngularGrid ... 4 (Lebedev-302)
Angular grid pruning method      GridPruning ... 4 (adaptive)
Weight generation scheme         WeightScheme... mBecke (2022)
Basis function cutoff            BFCut       ... 1.0000e-11
Integration weight cutoff        WCut        ... 1.0000e-14
Partially contracted basis set               ... off
Rotationally invariant grid construction     ... off
Angular grids for H and He will be reduced by one unit

Total number of grid points                  ...   226224
Total number of batches                      ...     3560
Average number of points per batch           ...       63
Average number of grid points per atom       ...     4813

--------------------
COSX GRID GENERATION
--------------------

GRIDX 1
-------
General Integration Accuracy     IntAcc      ... 3.816
Radial Grid Type                 RadialGrid  ... OptM3 with GC (2021)
Angular Grid (max. ang.)         AngularGrid ... 1 (Lebedev-50)
Angular grid pruning method      GridPruning ... 4 (adaptive)
Weight generation scheme         WeightScheme... mBecke (2022)
Basis function cutoff            BFCut       ... 1.0000e-11
Integration weight cutoff        WCut        ... 1.0000e-14
Partially contracted basis set               ... on
Rotationally invariant grid construction     ... off
Angular grids for H and He will be reduced by one unit

Total number of grid points                  ...    28712
Total number of batches                      ...      251
Average number of points per batch           ...      114
Average number of grid points per atom       ...      611
UseSFitting                                  ... on

GRIDX 2
-------
General Integration Accuracy     IntAcc      ... 4.020
Radial Grid Type                 RadialGrid  ... OptM3 with GC (2021)
Angular Grid (max. ang.)         AngularGrid ... 2 (Lebedev-110)
Angular grid pruning method      GridPruning ... 4 (adaptive)
Weight generation scheme         WeightScheme... mBecke (2022)
Basis function cutoff            BFCut       ... 1.0000e-11
Integration weight cutoff        WCut        ... 1.0000e-14
Partially contracted basis set               ... on
Rotationally invariant grid construction     ... off
Angular grids for H and He will be reduced by one unit

Total number of grid points                  ...    62769
Total number of batches                      ...      513
Average number of points per batch           ...      122
Average number of grid points per atom       ...     1336
UseSFitting                                  ... on

GRIDX 3
-------
General Integration Accuracy     IntAcc      ... 4.338
Radial Grid Type                 RadialGrid  ... OptM3 with GC (2021)
Angular Grid (max. ang.)         AngularGrid ... 3 (Lebedev-194)
Angular grid pruning method      GridPruning ... 4 (adaptive)
Weight generation scheme         WeightScheme... mBecke (2022)
Basis function cutoff            BFCut       ... 1.0000e-11
Integration weight cutoff        WCut        ... 1.0000e-14
Partially contracted basis set               ... on
Rotationally invariant grid construction     ... off
Angular grids for H and He will be reduced by one unit

Total number of grid points                  ...   137502
Total number of batches                      ...     1096
Average number of points per batch           ...      125
Average number of grid points per atom       ...     2926
UseSFitting                                  ... on
Grids setup in   9.2 sec
Initializing property integral containers    ... done (  0.0 sec)

SHARK setup successfully completed in   9.9 seconds

Maximum memory used throughout the entire STARTUP-calculation: 91.6 MB
Occupation numbers will be reassigned to an Aufbau configuration
             **** ENERGY FILE WAS UPDATED (curcumin.en.tmp) ****
Finished Guess after   0.2 sec
Maximum memory used throughout the entire GUESS-calculation: 30.2 MB
----------------------------------------D-I-I-S--------------------------------------------
Iteration    Energy (Eh)           Delta-E    RMSDP     MaxDP     DIISErr   Damp  Time(sec)
-------------------------------------------------------------------------------------------
               ***  Starting incremental Fock matrix formation  ***
    1    -1262.7739259728273282     0.00e+00  2.21e-04  6.53e-03  3.31e-02  0.700  35.7
    2    -1262.7816107086682678    -7.68e-03  2.12e-04  6.33e-03  2.64e-02  0.700  14.3
                               ***Turning on AO-DIIS***
    3    -1262.7877721383297285    -6.16e-03  1.81e-04  5.41e-03  2.00e-02  0.700  14.1
    4    -1262.7923539499565777    -4.58e-03  4.68e-04  1.39e-02  1.46e-02  0.000  13.9
                              *** Initializing SOSCF ***
---------------------------------------S-O-S-C-F--------------------------------------
Iteration    Energy (Eh)           Delta-E    RMSDP     MaxDP     MaxGrad    Time(sec)
--------------------------------------------------------------------------------------
    5    -1262.8039263467821911    -1.16e-02  3.25e-05  8.27e-04  7.92e-04    15.1
               *** Restarting incremental Fock matrix formation ***
    6    -1262.8039568641183905    -3.05e-05  2.97e-05  1.40e-03  2.12e-04    35.2
    7    -1262.8039584713369550    -1.61e-06  2.03e-05  1.06e-03  3.95e-04    22.1
    8    -1262.8039650523287492    -6.58e-06  9.85e-06  2.77e-04  7.39e-05    21.6
    9    -1262.8039658205220803    -7.68e-07  3.03e-06  1.97e-04  2.58e-05    19.6
   10    -1262.8039659190249040    -9.85e-08  2.06e-06  5.26e-05  2.38e-05    14.5
   11    -1262.8039659652340561    -4.62e-08  9.80e-07  4.83e-05  8.66e-06    36.0
   12    -1262.8039659640780883     1.16e-09  5.50e-07  2.92e-05  6.43e-06    15.7
                 **** Energy Check signals convergence ****

               *****************************************************
               *                     SUCCESS                       *
               *           SCF CONVERGED AFTER  12 CYCLES          *
               *****************************************************

Recomputing exchange energy using gridx3       ... done (   63.154 sec)
Old exchange energy                            :    -33.083696100 Eh
New exchange energy                            :    -33.083820147 Eh
Exchange energy change after final integration :     -0.000124047 Eh
Total energy after final integration           :  -1262.804090023 Eh
             **** ENERGY FILE WAS UPDATED (curcumin.en.tmp) ****

----------------
TOTAL SCF ENERGY
----------------

Total Energy       :      -1262.80409002289753 Eh          -34362.64625 eV

Components:
Nuclear Repulsion  :       2139.43852495576448 Eh           58217.08196 eV
Electronic Energy  :      -3402.24249093131903 Eh          -92579.72484 eV
One Electron Energy:      -5972.30560224349665 Eh         -162514.69752 eV
Two Electron Energy:       2570.06311131217763 Eh           69934.97268 eV

Virial components:
Potential Energy   :      -2518.25022583064219 Eh          -68525.07239 eV
Kinetic Energy     :       1255.44613580774444 Eh           34162.42614 eV
Virial Ratio       :          2.00586082827872

DFT components:
N(Alpha)           :       97.000026362963 electrons
N(Beta)            :       97.000026362963 electrons
N(Total)           :      194.000052725925 electrons
E(X)               :     -131.493327215125 Eh       
E(C)               :       -7.825711742704 Eh       
E(XC)              :     -139.319038957829 Eh       

---------------
SCF CONVERGENCE
---------------

  Last Energy change         ...   -1.1560e-09  Tolerance :   1.0000e-08
  Last MAX-Density change    ...    2.9161e-05  Tolerance :   1.0000e-07
  Last RMS-Density change    ...    5.4975e-07  Tolerance :   5.0000e-09
  Last DIIS Error            ...    7.9187e-04  Tolerance :   5.0000e-07
  Last Orbital Gradient      ...    6.4307e-06  Tolerance :   1.0000e-05
  Last Orbital Rotation      ...    1.6127e-05  Tolerance :   1.0000e-05


Total SCF time: 0 days 0 hours 5 min 33 sec 
Finished LeanSCF after 333.9 sec

Maximum memory used throughout the entire LEANSCF-calculation: 59.1 MB

-------------------------   --------------------
FINAL SINGLE POINT ENERGY     -1262.804090022898
-------------------------   --------------------

------------------------------------------------------------------------------
                         ORCA SCF GRADIENT CALCULATION
------------------------------------------------------------------------------

Nuc. rep. gradient        (SHARK) ... done (  0.0 sec)
HCore & Overlap gradient  (SHARK) ... done (  2.3 sec)
Split-RIJ-J gradient      (SHARK) ... done ( 11.8 sec)
COSX-gradient                     ... done (513.6 sec)
XC gradient                       ... done ( 24.8 sec)

------------------
CARTESIAN GRADIENT
------------------

   1   C   :    0.000481710    0.002583194   -0.001250154
   2   O   :   -0.000338262   -0.000870047    0.001191764
   3   C   :    0.001820271   -0.001085987   -0.007424475
   4   C   :    0.001423982    0.002938157    0.001941326
   5   C   :    0.002600934   -0.004819199   -0.000935514
   6   C   :   -0.002379874    0.010477083    0.005219440
   7   C   :    0.002047486   -0.010525481   -0.001783579
   8   C   :    0.007472393    0.007821615   -0.003091429
   9   O   :   -0.002161098   -0.001508148    0.001227245
  10   C   :   -0.012035996   -0.003092926   -0.007412491
  11   C   :    0.004137543   -0.004541373    0.010219285
  12   O   :   -0.000608936    0.000514306   -0.002973913
  13   C   :   -0.005258750    0.009495450    0.000135513
  14   C   :    0.008326182   -0.008277620   -0.003238993
  15   C   :   -0.003985267    0.002912434    0.005369837
  16   C   :    0.002203066   -0.001093926    0.001741437
  17   C   :   -0.003025370    0.006656902   -0.002567103
  18   C   :    0.000682392   -0.013221732    0.008503356
  19   O   :    0.001131530    0.004549286   -0.003910624
  20   C   :   -0.000025789    0.006312512   -0.004986606
  21   O   :   -0.000883276   -0.000519581    0.001567597
  22   C   :    0.002372833   -0.000053148   -0.001932000
  23   C   :    0.001598529   -0.003353093   -0.002657461
  24   C   :   -0.003018165    0.001820334    0.002038410
  25   C   :    0.001269761   -0.005063392   -0.006422160
  26   C   :   -0.003954491    0.004169757    0.014214572
  27   O   :    0.001826436    0.000032886   -0.005715290
  28   H   :    0.000995934   -0.001965782   -0.000220338
  29   H   :   -0.000904570   -0.001849410   -0.000745919
  30   H   :   -0.000659245    0.000561974    0.002225212
  31   H   :    0.000247227    0.000692692   -0.000112111
  32   H   :   -0.002374866   -0.002667983   -0.002434620
  33   H   :    0.000020216    0.001322118    0.000137416
  34   H   :    0.001704165    0.000960941    0.003277176
  35   H   :    0.003756971    0.000500543    0.000045164
  36   H   :    0.000700091   -0.000929269    0.000270181
  37   H   :   -0.004005471    0.000496132   -0.001463403
  38   H   :   -0.000138389    0.000933367   -0.000289332
  39   H   :    0.001730515   -0.001196790   -0.000618467
  40   H   :   -0.000752650   -0.000306431    0.000744783
  41   H   :   -0.000949267    0.001711875    0.001044093
  42   H   :    0.000040940   -0.002041357    0.001338341
  43   H   :   -0.002058159    0.000766723   -0.000402623
  44   H   :    0.000519214   -0.000119156    0.000069012
  45   H   :    0.000518503   -0.000544151   -0.001023472
  46   H   :    0.000251593    0.002116988    0.000319645
  47   H   :   -0.000362528   -0.000701285    0.000771272

Difference to translation invariance:
           :   -0.0000000001    0.0000000000   -0.0000000000

Difference to rotation invariance:
           :    0.0000343410    0.0001662464    0.0000018694

Norm of the Cartesian gradient     ...    0.0460039333
RMS gradient                       ...    0.0038742301
MAX gradient                       ...    0.0142145720

-------
TIMINGS
-------

Total SCF gradient time     ....      552.469 sec

Densities                   ....       0.008 sec  (  0.0%)
One electron gradient       ....       2.280 sec  (  0.4%)
RI-J Coulomb gradient       ....      11.783 sec  (  2.1%)
COSX gradient               ....     513.627 sec  ( 93.0%)
XC gradient                 ....      24.765 sec  (  4.5%)

Maximum memory used throughout the entire SCFGRAD-calculation: 66.8 MB
------------------------------------------------------------------------------
                         ORCA GEOMETRY RELAXATION STEP
------------------------------------------------------------------------------

Reading the OPT-File                    .... done
Getting information on internals        .... done
Copying old internal coords+grads       .... done
Making the new internal coordinates     .... (2022 redundants) done
Validating the new internal coordinates .... (2022 redundants) done
Calculating the B-matrix                .... done
Calculating the G,G- and P matrices     .... done
Transforming gradient to internals      .... done
Projecting the internal gradient        .... done
Number of atoms                         ....  47
Number of internal coordinates          .... 220
Current Energy                          .... -1262.804090023 Eh
Current gradient norm                   ....     0.046003933 Eh/bohr
Maximum allowed component of the step   ....  0.300
Current trust radius                    ....  0.300
Updating the Hessian (BFGS)             .... done
Forming the augmented Hessian           .... done
Diagonalizing the augmented Hessian     .... done
Last element of RFO vector              ....  0.896048956
Lowest eigenvalues of augmented Hessian:
 -0.006909159  0.012682954  0.012731549  0.012776848  0.012789788
Length of the computed step             ....  0.495458704
Warning: the length of the step is outside the trust region - taking restricted step instead
The input lambda is                     ....     0.010042
   iter:   5  x=    0.003424  g= 1078.832544 f(x)=     2.716237
   iter:  10  x=   -0.019430  g=    7.238830 f(x)=     0.020718
The output lambda is                    ....    -0.019954 (14 iterations)
The final length of the internal step   ....  0.300000000
Converting the step to Cartesian space:
 Initial RMS(Int)=    0.0202259959
Transforming coordinates:
 Iter   0:  RMS(Cart)=    0.1891947592 RMS(Int)=    0.5989381014
 Iter   5:  RMS(Cart)=    0.0000007944 RMS(Int)=    0.0000002414
done
Storing new coordinates                 .... done
The predicted energy change is          ....    -0.003391423
Previously predicted energy change      ....    -0.004849660
Actually observed energy change         ....    -0.006551285
Ratio of predicted to observed change   ....     1.350875108
New trust radius                        ....     0.300000000

                                .--------------------.
          ----------------------|Geometry convergence|-------------------------
          Item                value                   Tolerance       Converged
          ---------------------------------------------------------------------
          Energy change      -0.0065512850            0.0000050000      NO
          RMS gradient        0.0018006868            0.0001000000      NO
          MAX gradient        0.0066939906            0.0003000000      NO
          RMS step            0.0202259959            0.0020000000      NO
          MAX step            0.1013342898            0.0040000000      NO
          -------------------------------------------------------------------------
          ........................................................
          Max(Bonds)      0.0153      Max(Angles)    2.00
          Max(Dihed)        5.81      Max(Improp)    0.00
          ---------------------------------------------------------------------

The optimization has not yet converged - more geometry cycles are needed


    ---------------------------------------------------------------------------
                         Redundant Internal Coordinates
                            (Angstroem and degrees)

        Definition                    Value    dE/dq     Step     New-Value
    ----------------------------------------------------------------------------
     1. B(O   1,C   0)                1.4174 -0.000026 -0.0002    1.4172   
     2. B(C   2,O   1)                1.3650  0.001983 -0.0036    1.3614   
     3. B(C   3,C   2)                1.3962  0.002445 -0.0041    1.3922   
     4. B(C   4,C   3)                1.4093 -0.001760  0.0033    1.4125   
     5. B(C   5,C   4)                1.4710  0.002418 -0.0046    1.4664   
     6. B(C   6,C   5)                1.3459 -0.002593  0.0038    1.3497   
     7. B(C   7,C   6)                1.4859  0.002942 -0.0066    1.4792   
     8. B(O   8,C   7)                1.2271  0.002127 -0.0023    1.2248   
     9. B(C   9,C   7)                1.5208 -0.005708  0.0145    1.5352   
    10. B(C  10,C   9)                1.5210 -0.006074  0.0153    1.5363   
    11. B(O  11,C  10)                1.2265  0.002304 -0.0025    1.2240   
    12. B(C  12,C  10)                1.4858  0.003012 -0.0068    1.4790   
    13. B(C  13,C  12)                1.3460 -0.002666  0.0039    1.3499   
    14. B(C  14,C  13)                1.4710  0.002600 -0.0050    1.4660   
    15. B(C  15,C  14)                1.4016 -0.000046  0.0002    1.4018   
    16. B(C  16,C  15)                1.3959  0.000351 -0.0005    1.3954   
    17. B(C  17,C  16)                1.3963  0.000932 -0.0011    1.3951   
    18. B(O  18,C  17)                1.3675  0.002557 -0.0042    1.3633   
    19. B(C  19,C  17)                1.4074 -0.004962  0.0084    1.4158   
    20. B(O  20,C  19)                1.3645  0.002155 -0.0040    1.3606   
    21. B(C  21,O  20)                1.4181 -0.000209  0.0002    1.4183   
    22. B(C  22,C  19)                1.3965  0.002715 -0.0045    1.3920   
    23. B(C  22,C  14)                1.4079 -0.002177  0.0037    1.4116   
    24. B(C  23,C   4)                1.4005 -0.000476  0.0007    1.4012   
    25. B(C  24,C  23)                1.3961  0.000659 -0.0010    1.3951   
    26. B(C  25,C  24)                1.3965  0.000766 -0.0009    1.3956   
    27. B(C  25,C   2)                1.4070 -0.004668  0.0079    1.4149   
    28. B(O  26,C  25)                1.3673  0.002498 -0.0041    1.3632   
    29. B(H  27,C   0)                1.0980 -0.000237  0.0009    1.0989   
    30. B(H  28,C   0)                1.0979 -0.000241  0.0009    1.0988   
    31. B(H  29,C   0)                1.0928  0.000335 -0.0010    1.0919   
    32. B(H  30,C   3)                1.0843 -0.000077  0.0001    1.0844   
    33. B(H  31,C   5)                1.0889 -0.000329  0.0008    1.0897   
    34. B(H  32,C   6)                1.0865 -0.000182  0.0007    1.0872   
    35. B(H  33,C   9)                1.0958  0.000668 -0.0017    1.0940   
    36. B(H  34,C   9)                1.0963  0.000630 -0.0016    1.0947   
    37. B(H  35,C  12)                1.0866 -0.000133  0.0005    1.0872   
    38. B(H  36,C  13)                1.0885 -0.000354  0.0008    1.0893   
    39. B(H  37,C  15)                1.0868  0.000157 -0.0005    1.0863   
    40. B(H  38,C  16)                1.0877 -0.000430  0.0013    1.0890   
    41. B(H  39,O  18)                0.9689 -0.000874  0.0016    0.9704   
    42. B(H  40,C  21)                1.0978 -0.000189  0.0007    1.0985   
    43. B(H  41,C  21)                1.0928  0.000341 -0.0010    1.0918   
    44. B(H  42,C  21)                1.0977 -0.000219  0.0008    1.0985   
    45. B(H  43,C  22)                1.0836  0.000101 -0.0004    1.0832   
    46. B(H  44,C  23)                1.0860  0.000272 -0.0008    1.0851   
    47. B(H  45,C  24)                1.0875 -0.000483  0.0014    1.0889   
    48. B(H  46,O  26)                0.9689 -0.000873  0.0016    0.9705   
    49. A(O   1,C   0,H  28)          111.41 -0.000765    0.19    111.60   
    50. A(H  27,C   0,H  28)          110.41  0.002216   -0.99    109.42   
    51. A(H  28,C   0,H  29)          108.39 -0.001856    0.77    109.16   
    52. A(H  27,C   0,H  29)          108.38 -0.001831    0.77    109.15   
    53. A(O   1,C   0,H  29)          106.69  0.003035   -0.91    105.78   
    54. A(O   1,C   0,H  27)          111.40 -0.000876    0.23    111.62   
    55. A(C   0,O   1,C   2)          117.52 -0.001421    0.34    117.86   
    56. A(O   1,C   2,C   3)          125.27 -0.000761    0.19    125.46   
    57. A(O   1,C   2,C  25)          115.80  0.001288   -0.34    115.46   
    58. A(C   3,C   2,C  25)          118.93 -0.000527    0.15    119.08   
    59. A(C   4,C   3,H  30)          118.47 -0.000285    0.10    118.57   
    60. A(C   2,C   3,H  30)          120.30  0.001197   -0.36    119.94   
    61. A(C   2,C   3,C   4)          121.22 -0.000911    0.26    121.48   
    62. A(C   3,C   4,C  23)          118.93  0.000942   -0.26    118.67   
    63. A(C   3,C   4,C   5)          119.08 -0.000296    0.11    119.19   
    64. A(C   5,C   4,C  23)          121.97 -0.000652    0.16    122.13   
    65. A(C   4,C   5,H  31)          116.29 -0.001087    0.41    116.70   
    66. A(C   4,C   5,C   6)          124.61 -0.005009    1.31    125.92   
    67. A(C   6,C   5,H  31)          119.09  0.006096   -1.72    117.37   
    68. A(C   5,C   6,H  32)          122.08  0.001989   -0.58    121.50   
    69. A(C   7,C   6,H  32)          117.26 -0.000666    0.22    117.48   
    70. A(C   5,C   6,C   7)          120.66 -0.001323    0.36    121.03   
    71. A(O   8,C   7,C   9)          120.88  0.001360   -0.32    120.55   
    72. A(C   6,C   7,C   9)          116.66  0.001874   -0.51    116.15   
    73. A(C   6,C   7,O   8)          122.45 -0.003234    0.80    123.25   
    74. A(H  33,C   9,H  34)          107.47 -0.003055    2.00    109.46   
    75. A(C   7,C   9,H  34)          108.70  0.002002   -0.83    107.87   
    76. A(C   7,C   9,C  10)          110.73  0.001648   -0.88    109.85   
    77. A(C  10,C   9,H  34)          110.36 -0.000859    0.19    110.56   
    78. A(C   7,C   9,H  33)          110.75 -0.001330    0.37    111.12   
    79. A(C  10,C   9,H  33)          108.78  0.001427   -0.73    108.05   
    80. A(O  11,C  10,C  12)          122.51 -0.003457    0.87    123.37   
    81. A(C   9,C  10,C  12)          116.54  0.002299   -0.62    115.92   
    82. A(C   9,C  10,O  11)          120.93  0.001149   -0.26    120.68   
    83. A(C  10,C  12,H  35)          117.15 -0.000503    0.17    117.32   
    84. A(C  13,C  12,H  35)          122.10  0.001927   -0.56    121.53   
    85. A(C  10,C  12,C  13)          120.75 -0.001424    0.39    121.15   
    86. A(C  14,C  13,H  36)          116.27 -0.000815    0.33    116.60   
    87. A(C  12,C  13,H  36)          119.16  0.005946   -1.67    117.49   
    88. A(C  12,C  13,C  14)          124.56 -0.005131    1.34    125.91   
    89. A(C  15,C  14,C  22)          118.94  0.000883   -0.24    118.69   
    90. A(C  13,C  14,C  22)          121.76  0.000776   -0.22    121.54   
    91. A(C  13,C  14,C  15)          119.30 -0.001665    0.47    119.77   
    92. A(C  16,C  15,H  37)          119.35 -0.001007    0.32    119.67   
    93. A(C  14,C  15,H  37)          120.23  0.000955   -0.28    119.95   
    94. A(C  14,C  15,C  16)          120.42  0.000053   -0.05    120.37   
    95. A(C  17,C  16,H  38)          120.38  0.003288   -0.95    119.44   
    96. A(C  15,C  16,H  38)          119.44 -0.001131    0.38    119.82   
    97. A(C  15,C  16,C  17)          120.18 -0.002157    0.57    120.74   
    98. A(O  18,C  17,C  19)          118.04  0.004098   -1.07    116.97   
    99. A(C  16,C  17,C  19)          120.28  0.002596   -0.67    119.61   
   100. A(C  16,C  17,O  18)          121.67 -0.006694    1.75    123.42   
   101. A(C  17,O  18,H  39)          108.62  0.001225   -0.38    108.24   
   102. A(O  20,C  19,C  22)          125.16 -0.000772    0.19    125.35   
   103. A(C  17,C  19,C  22)          119.06 -0.000673    0.19    119.26   
   104. A(C  17,C  19,O  20)          115.77  0.001446   -0.38    115.39   
   105. A(C  19,O  20,C  21)          117.52 -0.001462    0.35    117.87   
   106. A(H  41,C  21,H  42)          108.40 -0.001900    0.79    109.19   
   107. A(H  40,C  21,H  42)          110.40  0.002222   -1.00    109.39   
   108. A(H  40,C  21,H  41)          108.40 -0.001888    0.78    109.18   
   109. A(O  20,C  21,H  41)          106.67  0.003093   -0.93    105.75   
   110. A(O  20,C  21,H  40)          111.42 -0.000779    0.19    111.61   
   111. A(O  20,C  21,H  42)          111.40 -0.000828    0.21    111.61   
   112. A(C  14,C  22,C  19)          121.10 -0.000701    0.20    121.31   
   113. A(C  19,C  22,H  43)          120.19  0.000813   -0.24    119.95   
   114. A(C  14,C  22,H  43)          118.70 -0.000110    0.03    118.73   
   115. A(C   4,C  23,C  24)          120.30  0.000236   -0.10    120.20   
   116. A(C  24,C  23,H  44)          119.19 -0.001364    0.43    119.63   
   117. A(C   4,C  23,H  44)          120.50  0.001130   -0.34    120.16   
   118. A(C  25,C  24,H  45)          120.34  0.003334   -0.96    119.38   
   119. A(C  23,C  24,H  45)          119.33 -0.000965    0.33    119.66   
   120. A(C  23,C  24,C  25)          120.32 -0.002369    0.63    120.95   
   121. A(C  24,C  25,O  26)          121.69 -0.006595    1.73    123.41   
   122. A(C   2,C  25,O  26)          118.03  0.003966   -1.04    116.98   
   123. A(C   2,C  25,C  24)          120.28  0.002629   -0.68    119.60   
   124. A(C  25,O  26,H  46)          108.63  0.001220   -0.38    108.25   
   125. D(C   2,O   1,C   0,H  27)    -62.40 -0.000858    0.53    -61.87   
   126. D(C   2,O   1,C   0,H  28)     61.38  0.000820   -0.46     60.92   
   127. D(C   2,O   1,C   0,H  29)    179.50 -0.000003    0.03    179.53   
   128. D(C   3,C   2,O   1,C   0)      0.77  0.000013   -0.01      0.75   
   129. D(C  25,C   2,O   1,C   0)   -179.07 -0.000032    0.07   -179.00   
   130. D(H  30,C   3,C   2,C  25)    179.90  0.000039   -0.07    179.83   
   131. D(C   4,C   3,C   2,C  25)     -1.00  0.000074   -0.08     -1.08   
   132. D(H  30,C   3,C   2,O   1)      0.07 -0.000010    0.02      0.09   
   133. D(C   4,C   3,C   2,O   1)    179.17  0.000025    0.01    179.18   
   134. D(C  23,C   4,C   3,C   2)      1.53 -0.000036    0.03      1.56   
   135. D(C  23,C   4,C   3,H  30)   -179.35  0.000012    0.02   -179.34   
   136. D(C   5,C   4,C   3,H  30)     -0.74 -0.000278    0.50     -0.24   
   137. D(C   5,C   4,C   3,C   2)   -179.86 -0.000327    0.52   -179.34   
   138. D(C   6,C   5,C   4,C   3)    146.60 -0.001936    4.63    151.23   
   139. D(C   6,C   5,C   4,C  23)    -34.83 -0.002212    5.12    -29.71   
   140. D(H  31,C   5,C   4,C   3)    -32.60 -0.001971    4.74    -27.86   
   141. D(H  31,C   5,C   4,C  23)    145.96 -0.002247    5.23    151.19   
   142. D(H  32,C   6,C   5,C   4)     -0.68  0.000233   -0.31     -0.99   
   143. D(H  32,C   6,C   5,H  31)    178.50  0.000213   -0.41    178.10   
   144. D(C   7,C   6,C   5,H  31)     -1.28  0.000159   -0.28     -1.56   
   145. D(C   7,C   6,C   5,C   4)    179.54  0.000180   -0.19    179.35   
   146. D(C   9,C   7,C   6,H  32)     -2.04 -0.000003    0.61     -1.43   
   147. D(C   9,C   7,C   6,C   5)    177.76  0.000053    0.49    178.25   
   148. D(O   8,C   7,C   6,H  32)    176.93  0.000016   -0.60    176.33   
   149. D(O   8,C   7,C   6,C   5)     -3.27  0.000072   -0.73     -4.00   
   150. D(H  34,C   9,C   7,C   6)   -153.28  0.002198   -2.65   -155.93   
   151. D(H  33,C   9,C   7,O   8)    145.57 -0.001050    0.69    146.26   
   152. D(H  33,C   9,C   7,C   6)    -35.44 -0.001082   -0.51    -35.94   
   153. D(C  10,C   9,C   7,O   8)    -93.66  0.000960   -0.58    -94.24   
   154. D(C  10,C   9,C   7,C   6)     85.33  0.000928   -1.77     83.56   
   155. D(O  11,C  10,C   9,C   7)    -97.87  0.001158   -1.26    -99.13   
   156. D(C  12,C  10,C   9,H  33)   -157.56  0.001067   -2.08   -159.63   
   157. D(C  12,C  10,C   9,C   7)     80.52  0.000735   -1.48     79.04   
   158. D(O  11,C  10,C   9,H  34)    141.73 -0.001860    0.23    141.96   
   159. D(O  11,C  10,C   9,H  33)     24.06  0.001491   -1.87     22.19   
   160. D(H  35,C  12,C  10,C   9)     -1.21  0.000303   -0.15     -1.35   
   161. D(H  35,C  12,C  10,O  11)    177.15 -0.000045   -0.38    176.77   
   162. D(C  13,C  12,C  10,C   9)    178.84  0.000331   -0.22    178.62   
   163. D(C  13,C  12,C  10,O  11)     -2.80 -0.000017   -0.46     -3.26   
   164. D(H  36,C  13,C  12,H  35)    178.65  0.000195   -0.38    178.27   
   165. D(H  36,C  13,C  12,C  10)     -1.40  0.000164   -0.30     -1.70   
   166. D(C  14,C  13,C  12,H  35)     -0.58  0.000214   -0.29     -0.87   
   167. D(C  14,C  13,C  12,C  10)    179.38  0.000183   -0.21    179.17   
   168. D(C  22,C  14,C  13,C  12)    -34.22 -0.002474    5.70    -28.51   
   169. D(C  22,C  14,C  13,H  36)    146.54 -0.002505    5.81    152.35   
   170. D(C  15,C  14,C  13,C  12)    146.82 -0.002085    5.01    151.83   
   171. D(C  15,C  14,C  13,H  36)    -32.42 -0.002116    5.12    -27.31   
   172. D(H  37,C  15,C  14,C  22)   -179.31  0.000026   -0.05   -179.36   
   173. D(H  37,C  15,C  14,C  13)     -0.32 -0.000352    0.62      0.31   
   174. D(C  16,C  15,C  14,C  22)      1.69 -0.000015   -0.00      1.69   
   175. D(C  16,C  15,C  14,C  13)   -179.32 -0.000393    0.67   -178.65   
   176. D(H  38,C  16,C  15,H  37)      0.22 -0.000026    0.00      0.22   
   177. D(H  38,C  16,C  15,C  14)    179.23  0.000034   -0.05    179.18   
   178. D(C  17,C  16,C  15,H  37)    179.86  0.000025   -0.03    179.83   
   179. D(C  17,C  16,C  15,C  14)     -1.13  0.000086   -0.08     -1.21   
   180. D(C  19,C  17,C  16,H  38)    179.70 -0.000015    0.02    179.72   
   181. D(C  19,C  17,C  16,C  15)      0.06 -0.000051    0.05      0.11   
   182. D(O  18,C  17,C  16,H  38)      0.18 -0.000091    0.11      0.29   
   183. D(O  18,C  17,C  16,C  15)   -179.45 -0.000126    0.13   -179.32   
   184. D(H  39,O  18,C  17,C  19)   -179.18  0.000011   -0.05   -179.22   
   185. D(H  39,O  18,C  17,C  16)      0.35  0.000079   -0.13      0.22   
   186. D(O  20,C  19,C  17,O  18)      0.32 -0.000069    0.11      0.42   
   187. D(O  20,C  19,C  17,C  16)   -179.21 -0.000089    0.18   -179.03   
   188. D(C  22,C  19,C  17,O  18)    179.95 -0.000009   -0.02    179.93   
   189. D(C  22,C  19,C  17,C  16)      0.42 -0.000030    0.05      0.47   
   190. D(C  21,O  20,C  19,C  22)     -0.31 -0.000177    0.37      0.07   
   191. D(C  21,O  20,C  19,C  17)    179.30 -0.000112    0.24    179.54   
   192. D(H  42,C  21,O  20,C  19)    -61.86 -0.000858    0.50    -61.36   
   193. D(H  41,C  21,O  20,C  19)   -179.97  0.000019   -0.01   -179.98   
   194. D(H  40,C  21,O  20,C  19)     61.90  0.000854   -0.51     61.40   
   195. D(H  43,C  22,C  19,O  20)      0.68  0.000056   -0.03      0.65   
   196. D(H  43,C  22,C  19,C  17)   -178.92 -0.000019    0.11   -178.81   
   197. D(C  14,C  22,C  19,O  20)    179.76  0.000153   -0.27    179.49   
   198. D(C  14,C  22,C  19,C  17)      0.17  0.000078   -0.12      0.04   
   199. D(H  43,C  22,C  14,C  15)    177.89  0.000052   -0.14    177.75   
   200. D(H  43,C  22,C  14,C  13)     -1.08  0.000465   -0.83     -1.92   
   201. D(C  19,C  22,C  14,C  15)     -1.21 -0.000051    0.10     -1.11   
   202. D(C  19,C  22,C  14,C  13)    179.82  0.000361   -0.60    179.22   
   203. D(H  44,C  23,C   4,C   5)     -0.67  0.000360   -0.67     -1.34   
   204. D(H  44,C  23,C   4,C   3)    177.90  0.000067   -0.18    177.72   
   205. D(C  24,C  23,C   4,C   5)   -179.62  0.000247   -0.43   -180.05   
   206. D(C  24,C  23,C   4,C   3)     -1.05 -0.000046    0.06     -0.99   
   207. D(H  45,C  24,C  23,H  44)      0.71  0.000030   -0.03      0.67   
   208. D(H  45,C  24,C  23,C   4)    179.67  0.000168   -0.27    179.40   
   209. D(C  25,C  24,C  23,H  44)   -178.89 -0.000061    0.14   -178.76   
   210. D(C  25,C  24,C  23,C   4)      0.07  0.000076   -0.10     -0.03   
   211. D(O  26,C  25,C  24,H  45)      0.46 -0.000033    0.10      0.56   
   212. D(O  26,C  25,C  24,C  23)   -179.95  0.000042   -0.06   -180.01   
   213. D(C   2,C  25,C  24,H  45)   -179.12 -0.000116    0.22   -178.90   
   214. D(C   2,C  25,C  24,C  23)      0.47 -0.000041    0.05      0.53   
   215. D(O  26,C  25,C   2,C   3)   -179.61 -0.000071    0.14   -179.46   
   216. D(O  26,C  25,C   2,O   1)      0.24 -0.000030    0.06      0.30   
   217. D(C  24,C  25,C   2,C   3)     -0.01 -0.000035    0.04      0.03   
   218. D(C  24,C  25,C   2,O   1)    179.84  0.000006   -0.05    179.79   
   219. D(H  46,O  26,C  25,C  24)     -0.46 -0.000128    0.24     -0.22   
   220. D(H  46,O  26,C  25,C   2)    179.13 -0.000051    0.13    179.26   
    ----------------------------------------------------------------------------

Geometry step timings:
Preparation and reading OPT file:      0.000 s ( 0.000 %)
Internal coordinates            :      0.000 s ( 0.000 %)
B/P matrices and projection     :      0.014 s (35.897 %)
Hessian update/contruction      :      0.010 s (25.641 %)
Making the step                 :      0.009 s (23.077 %)
Converting the step to Cartesian:      0.001 s ( 2.564 %)
Storing new data                :      0.000 s ( 0.000 %)
Checking convergence            :      0.001 s ( 2.564 %)
Final printing                  :      0.004 s (10.256 %)
Total time                      :      0.039 s

Time for energy+gradient        :    896.974 s
Time for complete geometry iter :    897.269 s

         *************************************************************
         *                GEOMETRY OPTIMIZATION CYCLE   3            *
         *************************************************************
---------------------------------
CARTESIAN COORDINATES (ANGSTROEM)
---------------------------------
  C     -0.480458   -7.943841    2.472475
  O      0.017024   -8.062608    1.150783
  C      0.381450   -6.921839    0.503307
  C      0.321733   -5.636779    1.035469
  C      0.738884   -4.510432    0.292163
  C      0.667855   -3.181186    0.907322
  C      1.468594   -2.132803    0.621924
  C      1.291177   -0.830792    1.301227
  O      0.384262   -0.604221    2.092567
  C      2.289592    0.272012    0.921824
  C      1.826378    0.974973   -0.363334
  O      2.310874    0.677412   -1.447264
  C      0.751834    1.978005   -0.200288
  C      0.284402    2.678267   -1.255489
  C     -0.784648    3.680668   -1.216629
  C     -0.795613    4.723192   -2.153611
  C     -1.791227    5.699963   -2.110723
  C     -2.804854    5.643632   -1.153786
  O     -3.810803    6.559993   -1.070769
  C     -2.821922    4.584575   -0.214370
  O     -3.859127    4.602246    0.665991
  C     -3.933151    3.559455    1.624414
  C     -1.818029    3.621245   -0.256881
  C      1.190327   -4.700970   -1.020561
  C      1.242479   -5.984206   -1.565458
  C      0.849869   -7.096965   -0.820240
  O      0.880052   -8.371840   -1.302095
  H      0.270723   -7.516323    3.151042
  H     -1.393724   -7.333808    2.507585
  H     -0.715882   -8.960483    2.793656
  H     -0.037654   -5.486246    2.047416
  H     -0.093239   -3.036280    1.673589
  H      2.269596   -2.212269   -0.108884
  H      3.285381   -0.143420    0.740924
  H      2.336402    0.982975    1.752907
  H      0.356349    2.127219    0.801347
  H      0.747818    2.496792   -2.224447
  H     -0.016125    4.782682   -2.907885
  H     -1.783458    6.513268   -2.834800
  H     -3.683299    7.215586   -1.774803
  H     -3.054642    3.552945    2.283936
  H     -4.825992    3.765457    2.218134
  H     -4.036969    2.576335    1.145366
  H     -1.830884    2.795500    0.444031
  H      1.481569   -3.848848   -1.626026
  H      1.585362   -6.121175   -2.589892
  H      1.207616   -8.343868   -2.215169

----------------------------
CARTESIAN COORDINATES (A.U.)
----------------------------
  NO LB      ZA    FRAG     MASS         X           Y           Z
   0 C     6.0000    0    12.011   -0.907934  -15.011685    4.672301
   1 O     8.0000    0    15.999    0.032170  -15.236122    2.174665
   2 C     6.0000    0    12.011    0.720836  -13.080380    0.951111
   3 C     6.0000    0    12.011    0.607987  -10.651968    1.956753
   4 C     6.0000    0    12.011    1.396288   -8.523481    0.552108
   5 C     6.0000    0    12.011    1.262062   -6.011570    1.714589
   6 C     6.0000    0    12.011    2.775240   -4.030414    1.175267
   7 C     6.0000    0    12.011    2.439970   -1.569970    2.458963
   8 O     8.0000    0    15.999    0.726150   -1.141813    3.954379
   9 C     6.0000    0    12.011    4.326702    0.514028    1.741995
  10 C     6.0000    0    12.011    3.451354    1.842431   -0.686601
  11 O     8.0000    0    15.999    4.366918    1.280123   -2.734933
  12 C     6.0000    0    12.011    1.420760    3.737888   -0.378490
  13 C     6.0000    0    12.011    0.537442    5.061191   -2.372531
  14 C     6.0000    0    12.011   -1.482770    6.955454   -2.299096
  15 C     6.0000    0    12.011   -1.503490    8.925539   -4.069735
  16 C     6.0000    0    12.011   -3.384929   10.771369   -3.988688
  17 C     6.0000    0    12.011   -5.300405   10.664918   -2.180339
  18 O     8.0000    0    15.999   -7.201374   12.396590   -2.023459
  19 C     6.0000    0    12.011   -5.332659    8.663592   -0.405100
  20 O     8.0000    0    15.999   -7.292693    8.696984    1.258541
  21 C     6.0000    0    12.011   -7.432577    6.726396    3.069697
  22 C     6.0000    0    12.011   -3.435577    6.843161   -0.485434
  23 C     6.0000    0    12.011    2.249393   -8.883546   -1.928582
  24 C     6.0000    0    12.011    2.347945  -11.308511   -2.958287
  25 C     6.0000    0    12.011    1.606020  -13.411321   -1.550028
  26 O     8.0000    0    15.999    1.663057  -15.820485   -2.460602
  27 H     1.0000    0     1.008    0.511593  -14.203793    5.954607
  28 H     1.0000    0     1.008   -2.633757  -13.858889    4.738649
  29 H     1.0000    0     1.008   -1.352820  -16.932859    5.279245
  30 H     1.0000    0     1.008   -0.071156  -10.367502    3.869055
  31 H     1.0000    0     1.008   -0.176196   -5.737738    3.162626
  32 H     1.0000    0     1.008    4.288915   -4.180583   -0.205760
  33 H     1.0000    0     1.008    6.208469   -0.271025    1.400144
  34 H     1.0000    0     1.008    4.415160    1.857554    3.312514
  35 H     1.0000    0     1.008    0.673403    4.019861    1.514326
  36 H     1.0000    0     1.008    1.413171    4.718253   -4.203595
  37 H     1.0000    0     1.008   -0.030472    9.037959   -5.495107
  38 H     1.0000    0     1.008   -3.370247   12.308292   -5.356996
  39 H     1.0000    0     1.008   -6.960426   13.635481   -3.353892
  40 H     1.0000    0     1.008   -5.772437    6.714094    4.316013
  41 H     1.0000    0     1.008   -9.119803    7.115683    4.191666
  42 H     1.0000    0     1.008   -7.628766    4.868568    2.164427
  43 H     1.0000    0     1.008   -3.459870    5.282730    0.839097
  44 H     1.0000    0     1.008    2.799759   -7.273268   -3.072743
  45 H     1.0000    0     1.008    2.995900  -11.567344   -4.894186
  46 H     1.0000    0     1.008    2.282063  -15.767625   -4.186062

--------------------------------
INTERNAL COORDINATES (ANGSTROEM)
--------------------------------
 C      0   0   0     0.000000000000     0.00000000     0.00000000
 O      1   0   0     1.417202953710     0.00000000     0.00000000
 C      2   1   0     1.361391493657   117.85851729     0.00000000
 C      3   2   1     1.392172386817   125.46402498     0.75176721
 C      4   3   2     1.412506916161   121.48236764   179.17696251
 C      5   4   3     1.466410677326   119.19365291   180.65767375
 C      6   5   4     1.349718688563   125.91949153   151.23181959
 C      7   6   5     1.479243815506   121.02557421   179.34976707
 O      8   7   6     1.224764252085   123.25389595   355.99371067
 C      8   7   6     1.535238465859   116.15338103   178.25265328
 C     10   8   7     1.536343228844   109.83551832    83.55280166
 O     11  10   8     1.224003459579   120.67703349   260.85949778
 C     11  10   8     1.478953423771   115.92257876    79.03573072
 C     13  11  10     1.349928857359   121.14579609   178.61645437
 C     14  13  11     1.466009875982   125.90746118   179.16570634
 C     15  14  13     1.401753235503   119.76993746   151.83299851
 C     16  15  14     1.395409980110   120.37372560   181.35306458
 C     17  16  15     1.395112765832   120.74444881   358.79425611
 O     18  17  16     1.363284093394   123.41805865   180.68110804
 C     18  17  16     1.415766237772   119.61030933     0.10633826
 O     20  18  17     1.360566847231   115.39276053   180.96430398
 C     21  20  18     1.418261200658   117.87223168   179.53883703
 C     20  18  17     1.391981656016   119.25718185     0.47017277
 C      5   4   3     1.401196434635   118.66719901     1.56613764
 C     24   5   4     1.395108430816   120.20116748   359.00892989
 C     25  24   5     1.395609370339   120.95186082   359.96450902
 O     26  25  24     1.363231881362   123.41370114   179.98874549
 H      1   2   3     1.098861995855   111.62567352   298.13234539
 H      1   2   3     1.098830217666   111.59689076    60.92138953
 H      1   2   3     1.091852679723   105.78297363   179.53067090
 H      4   3   2     1.084368458361   119.93916140     0.08959400
 H      6   5   4     1.089691417945   116.70276051   332.13674416
 H      7   6   5     1.087197957009   121.49694107   359.00857855
 H     10   8   7     1.094031059331   111.10195251   324.06202501
 H     10   8   7     1.094695717934   107.86145284   204.08661676
 H     13  11  10     1.087172944946   117.31965204   358.64769592
 H     14  13  11     1.089295983173   117.48951867   358.29994498
 H     16  15  14     1.086310446179   119.94982051     0.30857808
 H     17  16  15     1.088950562082   119.81975882   179.18248728
 H     19  18  17     0.970424557685   108.23841891     0.21556849
 H     22  21  20     1.098539480703   111.61245833    61.39725220
 H     22  21  20     1.091836187969   105.74929013   180.01543348
 H     22  21  20     1.098540236296   111.60786359   298.63806543
 H     23  20  18     1.083188441894   119.95061070   181.19423737
 H     24   5   4     1.085136545544   120.16025001   177.72047433
 H     25  24   5     1.088941388739   119.66349600   179.39182141
 H     27  26  25     0.970455609481   108.24511867   359.78443211

---------------------------
INTERNAL COORDINATES (A.U.)
---------------------------
 C      0   0   0     0.000000000000     0.00000000     0.00000000
 O      1   0   0     2.678125458696     0.00000000     0.00000000
 C      2   1   0     2.572657084062   117.85851729     0.00000000
 C      3   2   1     2.630824542291   125.46402498     0.75176721
 C      4   3   2     2.669251233813   121.48236764   179.17696251
 C      5   4   3     2.771114580004   119.19365291   180.65767375
 C      6   5   4     2.550598679219   125.91949153   151.23181959
 C      7   6   5     2.795365696602   121.02557421   179.34976707
 O      8   7   6     2.314469015058   123.25389595   355.99371067
 C      8   7   6     2.901180250736   116.15338103   178.25265328
 C     10   8   7     2.903267950220   109.83551832    83.55280166
 O     11  10   8     2.313031325576   120.67703349   260.85949778
 C     11  10   8     2.794816935753   115.92257876    79.03573072
 C     13  11  10     2.550995840686   121.14579609   178.61645437
 C     14  13  11     2.770357175230   125.90746118   179.16570634
 C     15  14  13     2.648929722439   119.76993746   151.83299851
 C     16  15  14     2.636942706949   120.37372560   181.35306458
 C     17  16  15     2.636381053359   120.74444881   358.79425611
 O     18  17  16     2.576233579245   123.41805865   180.68110804
 C     18  17  16     2.675410459041   119.61030933     0.10633826
 O     20  18  17     2.571098728160   115.39276053   180.96430398
 C     21  20  18     2.680125255610   117.87223168   179.53883703
 C     20  18  17     2.630464113313   119.25718185     0.47017277
 C      5   4   3     2.647877521287   118.66719901     1.56613764
 C     24   5   4     2.636372861366   120.20116748   359.00892989
 C     25  24   5     2.637319499876   120.95186082   359.96450902
 O     26  25  24     2.576134912804   123.41370114   179.98874549
 H      1   2   3     2.076548231140   111.62567352   298.13234539
 H      1   2   3     2.076488179066   111.59689076    60.92138953
 H      1   2   3     2.063302543264   105.78297363   179.53067090
 H      4   3   2     2.049159414564   119.93916140     0.08959400
 H      6   5   4     2.059218350401   116.70276051   332.13674416
 H      7   6   5     2.054506392105   121.49694107   359.00857855
 H     10   8   7     2.067419084140   111.10195251   324.06202501
 H     10   8   7     2.068675106872   107.86145284   204.08661676
 H     13  11  10     2.054459126157   117.31965204   358.64769592
 H     14  13  11     2.058471086978   117.48951867   358.29994498
 H     16  15  14     2.052829239696   119.94982051     0.30857808
 H     17  16  15     2.057818335714   119.81975882   179.18248728
 H     19  18  17     1.833836647657   108.23841891     0.21556849
 H     22  21  20     2.075938765829   111.61245833    61.39725220
 H     22  21  20     2.063271378366   105.74929013   180.01543348
 H     22  21  20     2.075940193692   111.60786359   298.63806543
 H     23  20  18     2.046929506609   119.95061070   181.19423737
 H     24   5   4     2.050610888988   120.16025001   177.72047433
 H     25  24   5     2.057801000608   119.66349600   179.39182141
 H     27  26  25     1.833895327046   108.24511867   359.78443211

------------------------------------------------------------------------------
                   ___                                                        
                  /   \      - P O W E R E D   B Y -                         
                 /     \                                                     
                 |  |  |   _    _      __       _____    __    __             
                 |  |  |  | |  | |    /  \     |  _  \  |  |  /  |          
                  \  \/   | |  | |   /    \    | | | |  |  | /  /          
                 / \  \   | |__| |  /  /\  \   | |_| |  |  |/  /          
                |  |  |   |  __  | /  /__\  \  |    /   |      \           
                |  |  |   | |  | | |   __   |  |    \   |  |\   \          
                \     /   | |  | | |  |  |  |  | |\  \  |  | \   \       
                 \___/    |_|  |_| |__|  |__|  |_| \__\ |__|  \__/        
                                                                              
                      - O R C A' S   B I G   F R I E N D -                    
                                      &                                       
                       - I N T E G R A L  F E E D E R -                       
                                                                              
 v1 FN, 2020, v2 2021, v3 2022-2024                                           
------------------------------------------------------------------------------


----------------------
SHARK INTEGRAL PACKAGE
----------------------

Number of atoms                             ...     47
Number of basis functions                   ...    418
Number of shells                            ...    202
Maximum angular momentum                    ...      2
Integral batch strategy                     ... SHARK/LIBINT Hybrid
RI-J (if used) integral strategy            ... SPLIT-RIJ (Revised 2003 algorithm where possible)
Printlevel                                  ...      1
Contraction scheme used                     ... SEGMENTED contraction
Prescreening option                         ... SCHWARTZ
   Thresh                                   ... 2.500e-11
   Tcut                                     ... 2.500e-12
   Tpresel                                  ... 2.500e-12 
Coulomb Range Separation                    ... NOT USED
Exchange Range Separation                   ... NOT USED
Multipole approximations                    ... NOT USED
Finite Nucleus Model                        ... NOT USED
CABS basis                                  ... NOT available
Auxiliary Coulomb fitting basis             ... AVAILABLE
   # of basis functions in Aux-J            ...   1543
   # of shells in Aux-J                     ...    505
   Maximum angular momentum in Aux-J        ...      4
Auxiliary J/K fitting basis                 ... NOT available
Auxiliary Correlation fitting basis         ... NOT available
Auxiliary 'external' fitting basis          ... NOT available

Checking pre-screening integrals            ... done (  0.0 sec) Dimension = 202
   => SHARK Basis and OBASIS are compatible. Storing Pre-screening
Shell pair information
Shell pair cut-off parameter TPreSel        ...   2.5e-12
Total number of shell pairs                 ...     20503
Shell pairs after pre-screening             ...     10401
Total number of primitive shell pairs       ...    118482
Primitive shell pairs kept                  ...     33343
          la=0 lb=0:   3540 shell pairs
          la=1 lb=0:   3596 shell pairs
          la=1 lb=1:    914 shell pairs
          la=2 lb=0:   1433 shell pairs
          la=2 lb=1:    764 shell pairs
          la=2 lb=2:    154 shell pairs

Checking whether 4 symmetric matrices of dimension 418 fit in memory
:Max Core in MB      =   4096.00
 MB in use           =     16.45
 MB left             =   4079.55
 MB needed           =      2.67
 Data fit in memory  = YES
Calculating RI/J V-Matrix + Cholesky decomp.... done (  0.2 sec)
Calculating Nuclear repulsion               ... done (  0.0 sec) ENN=   2142.460741107265 Eh

Diagonalization of the overlap matrix:
Smallest eigenvalue                        ... 4.213e-04
Time for diagonalization                   ...    0.026 sec
Threshold for overlap eigenvalues          ... 1.000e-07
Number of eigenvalues below threshold      ... 0
Time for construction of square roots      ...    0.017 sec
Total time needed                          ...    0.046 sec

-------------------
DFT GRID GENERATION
-------------------

General Integration Accuracy     IntAcc      ... 4.388
Radial Grid Type                 RadialGrid  ... OptM3 with GC (2021)
Angular Grid (max. ang.)         AngularGrid ... 4 (Lebedev-302)
Angular grid pruning method      GridPruning ... 4 (adaptive)
Weight generation scheme         WeightScheme... mBecke (2022)
Basis function cutoff            BFCut       ... 1.0000e-11
Integration weight cutoff        WCut        ... 1.0000e-14
Partially contracted basis set               ... off
Rotationally invariant grid construction     ... off
Angular grids for H and He will be reduced by one unit

Total number of grid points                  ...   226225
Total number of batches                      ...     3556
Average number of points per batch           ...       63
Average number of grid points per atom       ...     4813

--------------------
COSX GRID GENERATION
--------------------

GRIDX 1
-------
General Integration Accuracy     IntAcc      ... 3.816
Radial Grid Type                 RadialGrid  ... OptM3 with GC (2021)
Angular Grid (max. ang.)         AngularGrid ... 1 (Lebedev-50)
Angular grid pruning method      GridPruning ... 4 (adaptive)
Weight generation scheme         WeightScheme... mBecke (2022)
Basis function cutoff            BFCut       ... 1.0000e-11
Integration weight cutoff        WCut        ... 1.0000e-14
Partially contracted basis set               ... on
Rotationally invariant grid construction     ... off
Angular grids for H and He will be reduced by one unit

Total number of grid points                  ...    28678
Total number of batches                      ...      249
Average number of points per batch           ...      115
Average number of grid points per atom       ...      610
UseSFitting                                  ... on

GRIDX 2
-------
General Integration Accuracy     IntAcc      ... 4.020
Radial Grid Type                 RadialGrid  ... OptM3 with GC (2021)
Angular Grid (max. ang.)         AngularGrid ... 2 (Lebedev-110)
Angular grid pruning method      GridPruning ... 4 (adaptive)
Weight generation scheme         WeightScheme... mBecke (2022)
Basis function cutoff            BFCut       ... 1.0000e-11
Integration weight cutoff        WCut        ... 1.0000e-14
Partially contracted basis set               ... on
Rotationally invariant grid construction     ... off
Angular grids for H and He will be reduced by one unit

Total number of grid points                  ...    62747
Total number of batches                      ...      513
Average number of points per batch           ...      122
Average number of grid points per atom       ...     1335
UseSFitting                                  ... on

GRIDX 3
-------
General Integration Accuracy     IntAcc      ... 4.338
Radial Grid Type                 RadialGrid  ... OptM3 with GC (2021)
Angular Grid (max. ang.)         AngularGrid ... 3 (Lebedev-194)
Angular grid pruning method      GridPruning ... 4 (adaptive)
Weight generation scheme         WeightScheme... mBecke (2022)
Basis function cutoff            BFCut       ... 1.0000e-11
Integration weight cutoff        WCut        ... 1.0000e-14
Partially contracted basis set               ... on
Rotationally invariant grid construction     ... off
Angular grids for H and He will be reduced by one unit

Total number of grid points                  ...   137498
Total number of batches                      ...     1094
Average number of points per batch           ...      125
Average number of grid points per atom       ...     2925
UseSFitting                                  ... on
Grids setup in   8.4 sec
Initializing property integral containers    ... done (  0.0 sec)

SHARK setup successfully completed in   9.2 seconds

Maximum memory used throughout the entire STARTUP-calculation: 91.5 MB
Occupation numbers will be reassigned to an Aufbau configuration
             **** ENERGY FILE WAS UPDATED (curcumin.en.tmp) ****
Finished Guess after   0.3 sec
Maximum memory used throughout the entire GUESS-calculation: 30.3 MB
----------------------------------------D-I-I-S--------------------------------------------
Iteration    Energy (Eh)           Delta-E    RMSDP     MaxDP     DIISErr   Damp  Time(sec)
-------------------------------------------------------------------------------------------
               ***  Starting incremental Fock matrix formation  ***
    1    -1262.7668106274722959     0.00e+00  2.52e-04  8.20e-03  3.60e-02  0.700  34.1
    2    -1262.7771760912223726    -1.04e-02  2.42e-04  7.96e-03  2.85e-02  0.700  13.4
                               ***Turning on AO-DIIS***
    3    -1262.7855070682344376    -8.33e-03  2.08e-04  6.76e-03  2.13e-02  0.700  13.4
    4    -1262.7917096764736016    -6.20e-03  5.41e-04  1.73e-02  1.54e-02  0.000  13.4
                              *** Initializing SOSCF ***
---------------------------------------S-O-S-C-F--------------------------------------
Iteration    Energy (Eh)           Delta-E    RMSDP     MaxDP     MaxGrad    Time(sec)
--------------------------------------------------------------------------------------
    5    -1262.8073883968954760    -1.57e-02  3.77e-05  8.11e-04  8.85e-04    14.8
               *** Restarting incremental Fock matrix formation ***
    6    -1262.8074257371749809    -3.73e-05  3.13e-05  1.30e-03  2.40e-04    33.9
    7    -1262.8074309516632638    -5.21e-06  2.35e-05  1.19e-03  3.44e-04    21.6
    8    -1262.8074346474168124    -3.70e-06  1.34e-05  4.15e-04  1.46e-04    20.1
    9    -1262.8074366318633110    -1.98e-06  4.04e-06  1.72e-04  3.55e-05    19.4
   10    -1262.8074365913880683     4.05e-08  2.77e-06  1.04e-04  4.48e-05    15.2
   11    -1262.8074367853237163    -1.94e-07  8.94e-07  5.26e-05  5.31e-06    15.1
   12    -1262.8074367806084410     4.72e-09  4.96e-07  2.95e-05  6.50e-06    11.8
                 **** Energy Check signals convergence ****

               *****************************************************
               *                     SUCCESS                       *
               *           SCF CONVERGED AFTER  12 CYCLES          *
               *****************************************************

Recomputing exchange energy using gridx3       ... done (   57.062 sec)
Old exchange energy                            :    -33.082307190 Eh
New exchange energy                            :    -33.082421726 Eh
Exchange energy change after final integration :     -0.000114536 Eh
Total energy after final integration           :  -1262.807551335 Eh
             **** ENERGY FILE WAS UPDATED (curcumin.en.tmp) ****

----------------
TOTAL SCF ENERGY
----------------

Total Energy       :      -1262.80755133485627 Eh          -34362.74044 eV

Components:
Nuclear Repulsion  :       2142.46074110726477 Eh           58299.32065 eV
Electronic Energy  :      -3405.26817790614905 Eh          -92662.05797 eV
One Electron Energy:      -5978.35439636980118 Eh         -162679.29358 eV
Two Electron Energy:       2573.08621846365213 Eh           70017.23561 eV

Virial components:
Potential Energy   :      -2518.23426184856498 Eh          -68524.63799 eV
Kinetic Energy     :       1255.42671051370871 Eh           34161.89755 eV
Virial Ratio       :          2.00587914910471

DFT components:
N(Alpha)           :       97.000027186046 electrons
N(Beta)            :       97.000027186046 electrons
N(Total)           :      194.000054372092 electrons
E(X)               :     -131.489565397703 Eh       
E(C)               :       -7.825641769802 Eh       
E(XC)              :     -139.315207167505 Eh       

---------------
SCF CONVERGENCE
---------------

  Last Energy change         ...   -4.7153e-09  Tolerance :   1.0000e-08
  Last MAX-Density change    ...    2.9488e-05  Tolerance :   1.0000e-07
  Last RMS-Density change    ...    4.9572e-07  Tolerance :   5.0000e-09
  Last DIIS Error            ...    8.8543e-04  Tolerance :   5.0000e-07
  Last Orbital Gradient      ...    6.4991e-06  Tolerance :   1.0000e-05
  Last Orbital Rotation      ...    1.1195e-05  Tolerance :   1.0000e-05


Total SCF time: 0 days 0 hours 4 min 54 sec 
Finished LeanSCF after 294.6 sec

Maximum memory used throughout the entire LEANSCF-calculation: 59.2 MB

-------------------------   --------------------
FINAL SINGLE POINT ENERGY     -1262.807551334856
-------------------------   --------------------

------------------------------------------------------------------------------
                         ORCA SCF GRADIENT CALCULATION
------------------------------------------------------------------------------

Nuc. rep. gradient        (SHARK) ... done (  0.0 sec)
HCore & Overlap gradient  (SHARK) ... done (  2.1 sec)
Split-RIJ-J gradient      (SHARK) ... done ( 10.5 sec)
COSX-gradient                     ... done (113.2 sec)
XC gradient                       ... done ( 23.9 sec)

------------------
CARTESIAN GRADIENT
------------------

   1   C   :    0.000320341    0.000965855   -0.000718947
   2   O   :   -0.000104099   -0.000294288    0.000335747
   3   C   :    0.000132201   -0.000811081   -0.000821730
   4   C   :    0.001268342    0.000188019    0.000613138
   5   C   :    0.001367203   -0.002912181   -0.000563935
   6   C   :   -0.001421466    0.004444879    0.002216586
   7   C   :    0.001480786   -0.002427892    0.000154496
   8   C   :    0.000594638    0.000514585    0.002100939
   9   O   :    0.000172007   -0.000490818   -0.001422803
  10   C   :   -0.002484301   -0.000636538   -0.001917353
  11   C   :    0.001849857   -0.000292611    0.000017569
  12   O   :   -0.001188491    0.000235801    0.000537151
  13   C   :   -0.000085472    0.003009989    0.000730929
  14   C   :    0.003433378   -0.003755457   -0.001481378
  15   C   :   -0.002077505    0.002249120    0.002128508
  16   C   :    0.001261959    0.001145609    0.000212990
  17   C   :    0.000311620    0.000342662   -0.000524381
  18   C   :   -0.000267103   -0.001702247    0.001542062
  19   O   :   -0.001075935    0.000563851    0.000540854
  20   C   :   -0.000936456    0.001689719   -0.000841883
  21   O   :   -0.000112058   -0.000106273    0.000451065
  22   C   :    0.000935961    0.000095750   -0.000885771
  23   C   :    0.000205489   -0.002003887   -0.001678116
  24   C   :   -0.001661509    0.001542519   -0.000495263
  25   C   :    0.000125711   -0.000405087   -0.000557138
  26   C   :   -0.000527362    0.000269207    0.001361798
  27   O   :   -0.000109080   -0.001225537    0.000274123
  28   H   :    0.000337622   -0.000357686    0.000190400
  29   H   :   -0.000381695   -0.000251199   -0.000168599
  30   H   :   -0.000021095   -0.000008880    0.000027617
  31   H   :    0.000143487   -0.000008290   -0.000163253
  32   H   :   -0.001475576   -0.000575623   -0.001756693
  33   H   :    0.000053714    0.000029290   -0.000194573
  34   H   :    0.000583448    0.000602441    0.001039378
  35   H   :    0.001137525    0.000013538    0.000177534
  36   H   :   -0.000088500    0.000119939    0.000170140
  37   H   :   -0.002305591   -0.000727534   -0.000587270
  38   H   :   -0.000135031    0.000202847    0.000046822
  39   H   :    0.000531215   -0.000188784   -0.000297491
  40   H   :    0.000355989   -0.000362041   -0.000074443
  41   H   :   -0.000104751    0.000352801    0.000373764
  42   H   :   -0.000019319   -0.000041528    0.000048669
  43   H   :   -0.000491797   -0.000118981   -0.000113345
  44   H   :    0.000292517    0.000171536   -0.000129669
  45   H   :    0.000117925   -0.000174378    0.000071692
  46   H   :    0.000151037    0.000662656   -0.000072591
  47   H   :   -0.000089780    0.000466210    0.000102652

Difference to translation invariance:
           :   -0.0000000001   -0.0000000000   -0.0000000000

Difference to rotation invariance:
           :   -0.0000813993    0.0001499618    0.0000518268

Norm of the Cartesian gradient     ...    0.0132737306
RMS gradient                       ...    0.0011178498
MAX gradient                       ...    0.0044448791

-------
TIMINGS
-------

Total SCF gradient time     ....      149.763 sec

Densities                   ....       0.007 sec  (  0.0%)
One electron gradient       ....       2.090 sec  (  1.4%)
RI-J Coulomb gradient       ....      10.521 sec  (  7.0%)
COSX gradient               ....     113.207 sec  ( 75.6%)
XC gradient                 ....      23.938 sec  ( 16.0%)

Maximum memory used throughout the entire SCFGRAD-calculation: 66.7 MB
------------------------------------------------------------------------------
                         ORCA GEOMETRY RELAXATION STEP
------------------------------------------------------------------------------

Reading the OPT-File                    .... done
Getting information on internals        .... done
Copying old internal coords+grads       .... done
Making the new internal coordinates     .... (2022 redundants) done
Validating the new internal coordinates .... (2022 redundants) done
Calculating the B-matrix                .... done
Calculating the G,G- and P matrices     .... done
Transforming gradient to internals      .... done
Projecting the internal gradient        .... done
Number of atoms                         ....  47
Number of internal coordinates          .... 220
Current Energy                          .... -1262.807551335 Eh
Current gradient norm                   ....     0.013273731 Eh/bohr
Maximum allowed component of the step   ....  0.300
Current trust radius                    ....  0.300
Updating the Hessian (BFGS)             .... done
Forming the augmented Hessian           .... done
Diagonalizing the augmented Hessian     .... done
Last element of RFO vector              ....  0.920440942
Lowest eigenvalues of augmented Hessian:
 -0.002651477  0.012600640  0.012683191  0.012777054  0.012784429
Length of the computed step             ....  0.424667833
Warning: the length of the step is outside the trust region - taking restricted step instead
The input lambda is                     ....     0.009836
   iter:   5  x=    0.003450  g=  497.534724 f(x)=     1.175892
   iter:  10  x=   -0.008358  g=    9.545922 f(x)=     0.002107
The output lambda is                    ....    -0.008362 (13 iterations)
The final length of the internal step   ....  0.300000000
Converting the step to Cartesian space:
 Initial RMS(Int)=    0.0202259959
Transforming coordinates:
 Iter   0:  RMS(Cart)=    0.1443474884 RMS(Int)=    0.5993056224
 Iter   5:  RMS(Cart)=    0.0000002008 RMS(Int)=    0.0000000585
done
Storing new coordinates                 .... done
The predicted energy change is          ....    -0.001338438
Previously predicted energy change      ....    -0.003391423
Actually observed energy change         ....    -0.003461312
Ratio of predicted to observed change   ....     1.020607616
New trust radius                        ....     0.450000000

                                .--------------------.
          ----------------------|Geometry convergence|-------------------------
          Item                value                   Tolerance       Converged
          ---------------------------------------------------------------------
          Energy change      -0.0034613120            0.0000050000      NO
          RMS gradient        0.0006570532            0.0001000000      NO
          MAX gradient        0.0025522435            0.0003000000      NO
          RMS step            0.0202259959            0.0020000000      NO
          MAX step            0.1072404594            0.0040000000      NO
          -------------------------------------------------------------------------
          ........................................................
          Max(Bonds)      0.0048      Max(Angles)    1.07
          Max(Dihed)        6.14      Max(Improp)    0.00
          ---------------------------------------------------------------------

The optimization has not yet converged - more geometry cycles are needed


    ---------------------------------------------------------------------------
                         Redundant Internal Coordinates
                            (Angstroem and degrees)

        Definition                    Value    dE/dq     Step     New-Value
    ----------------------------------------------------------------------------
     1. B(O   1,C   0)                1.4172 -0.000687  0.0007    1.4179   
     2. B(C   2,O   1)                1.3614 -0.000244 -0.0009    1.3605   
     3. B(C   3,C   2)                1.3922  0.000470 -0.0017    1.3905   
     4. B(C   4,C   3)                1.4125 -0.000034  0.0011    1.4136   
     5. B(C   5,C   4)                1.4664  0.002433 -0.0046    1.4618   
     6. B(C   6,C   5)                1.3497 -0.000119  0.0013    1.3511   
     7. B(C   7,C   6)                1.4792  0.000820 -0.0031    1.4762   
     8. B(O   8,C   7)                1.2248 -0.001137  0.0001    1.2249   
     9. B(C   9,C   7)                1.5352  0.000438  0.0037    1.5390   
    10. B(C  10,C   9)                1.5363  0.000158  0.0044    1.5408   
    11. B(O  11,C  10)                1.2240 -0.001004 -0.0001    1.2239   
    12. B(C  12,C  10)                1.4790  0.000863 -0.0032    1.4758   
    13. B(C  13,C  12)                1.3499 -0.000076  0.0013    1.3513   
    14. B(C  14,C  13)                1.4660  0.002552 -0.0048    1.4612   
    15. B(C  15,C  14)                1.4018  0.000572 -0.0005    1.4012   
    16. B(C  16,C  15)                1.3954  0.000063 -0.0002    1.3952   
    17. B(C  17,C  16)                1.3951  0.001495 -0.0018    1.3933   
    18. B(O  18,C  17)                1.3633  0.000695 -0.0019    1.3614   
    19. B(C  19,C  17)                1.4158 -0.001544  0.0042    1.4199   
    20. B(O  20,C  19)                1.3606 -0.000238 -0.0010    1.3595   
    21. B(C  21,O  20)                1.4183 -0.000620  0.0008    1.4190   
    22. B(C  22,C  19)                1.3920  0.000933 -0.0023    1.3897   
    23. B(C  22,C  14)                1.4116 -0.001067  0.0023    1.4139   
    24. B(C  23,C   4)                1.4012 -0.000349  0.0006    1.4018   
    25. B(C  24,C  23)                1.3951  0.000454 -0.0007    1.3944   
    26. B(C  25,C  24)                1.3956  0.001142 -0.0013    1.3943   
    27. B(C  25,C   2)                1.4149 -0.001086  0.0035    1.4183   
    28. B(O  26,C  25)                1.3632  0.000572 -0.0017    1.3615   
    29. B(H  27,C   0)                1.0989  0.000208  0.0000    1.0989   
    30. B(H  28,C   0)                1.0988  0.000173  0.0001    1.0989   
    31. B(H  29,C   0)                1.0919  0.000021 -0.0004    1.0915   
    32. B(H  30,C   3)                1.0844 -0.000201  0.0003    1.0847   
    33. B(H  31,C   5)                1.0897 -0.000281  0.0007    1.0904   
    34. B(H  32,C   6)                1.0872  0.000168  0.0000    1.0872   
    35. B(H  33,C   9)                1.0940  0.000130 -0.0006    1.0934   
    36. B(H  34,C   9)                1.0947  0.000193 -0.0007    1.0940   
    37. B(H  35,C  12)                1.0872  0.000206 -0.0001    1.0871   
    38. B(H  36,C  13)                1.0893 -0.000338  0.0008    1.0901   
    39. B(H  37,C  15)                1.0863 -0.000118  0.0000    1.0863   
    40. B(H  38,C  16)                1.0890  0.000061  0.0003    1.0893   
    41. B(H  39,O  18)                0.9704 -0.000143  0.0005    0.9709   
    42. B(H  40,C  21)                1.0985  0.000138  0.0001    1.0986   
    43. B(H  41,C  21)                1.0918  0.000034 -0.0004    1.0914   
    44. B(H  42,C  21)                1.0985  0.000203 -0.0000    1.0985   
    45. B(H  43,C  22)                1.0832 -0.000218  0.0003    1.0834   
    46. B(H  44,C  23)                1.0851 -0.000145 -0.0000    1.0851   
    47. B(H  45,C  24)                1.0889  0.000033  0.0004    1.0893   
    48. B(H  46,O  26)                0.9705 -0.000113  0.0004    0.9709   
    49. A(O   1,C   0,H  28)          111.60 -0.000049    0.06    111.65   
    50. A(H  27,C   0,H  28)          109.42  0.000500   -0.45    108.97   
    51. A(H  28,C   0,H  29)          109.17 -0.000192    0.30    109.46   
    52. A(H  27,C   0,H  29)          109.15 -0.000221    0.30    109.45   
    53. A(O   1,C   0,H  29)          105.78 -0.000152   -0.21    105.57   
    54. A(O   1,C   0,H  27)          111.63  0.000074    0.04    111.66   
    55. A(C   0,O   1,C   2)          117.86 -0.000687    0.20    118.05   
    56. A(O   1,C   2,C   3)          125.46  0.000024    0.05    125.51   
    57. A(O   1,C   2,C  25)          115.46 -0.000013   -0.10    115.35   
    58. A(C   3,C   2,C  25)          119.08 -0.000011    0.05    119.13   
    59. A(C   4,C   3,H  30)          118.57 -0.000072    0.04    118.61   
    60. A(C   2,C   3,H  30)          119.94 -0.000014   -0.11    119.83   
    61. A(C   2,C   3,C   4)          121.48  0.000086    0.07    121.55   
    62. A(C   3,C   4,C  23)          118.67  0.000221   -0.11    118.55   
    63. A(C   3,C   4,C   5)          119.19  0.000685   -0.08    119.11   
    64. A(C   5,C   4,C  23)          122.13 -0.000908    0.21    122.34   
    65. A(C   4,C   5,H  31)          116.70 -0.000116    0.16    116.86   
    66. A(C   4,C   5,C   6)          125.92 -0.002219    0.78    126.70   
    67. A(C   6,C   5,H  31)          117.37  0.002335   -0.94    116.43   
    68. A(C   5,C   6,H  32)          121.50 -0.000105   -0.15    121.35   
    69. A(C   7,C   6,H  32)          117.48 -0.000125    0.08    117.56   
    70. A(C   5,C   6,C   7)          121.03  0.000230    0.07    121.09   
    71. A(O   8,C   7,C   9)          120.55  0.000524   -0.16    120.40   
    72. A(C   6,C   7,C   9)          116.15  0.000213   -0.15    116.00   
    73. A(C   6,C   7,O   8)          123.25 -0.000759    0.37    123.63   
    74. A(H  33,C   9,H  34)          109.46 -0.001100    1.07    110.54   
    75. A(C   7,C   9,H  34)          107.86  0.000449   -0.37    107.50   
    76. A(C   7,C   9,C  10)          109.84  0.000955   -0.55    109.28   
    77. A(C  10,C   9,H  34)          110.54 -0.000204    0.06    110.59   
    78. A(C   7,C   9,H  33)          111.10 -0.000556    0.21    111.31   
    79. A(C  10,C   9,H  33)          108.05  0.000437   -0.38    107.67   
    80. A(O  11,C  10,C  12)          123.37 -0.000849    0.39    123.76   
    81. A(C   9,C  10,C  12)          115.92  0.000274   -0.21    115.71   
    82. A(C   9,C  10,O  11)          120.68  0.000568   -0.17    120.51   
    83. A(C  10,C  12,H  35)          117.32 -0.000060    0.06    117.38   
    84. A(C  13,C  12,H  35)          121.53 -0.000222   -0.12    121.42   
    85. A(C  10,C  12,C  13)          121.15  0.000282    0.06    121.21   
    86. A(C  14,C  13,H  36)          116.60  0.000023    0.11    116.71   
    87. A(C  12,C  13,H  36)          117.49  0.002366   -0.93    116.56   
    88. A(C  12,C  13,C  14)          125.91 -0.002388    0.82    126.73   
    89. A(C  15,C  14,C  22)          118.69  0.000214   -0.11    118.58   
    90. A(C  13,C  14,C  22)          121.54 -0.000846    0.09    121.63   
    91. A(C  13,C  14,C  15)          119.77  0.000631    0.03    119.80   
    92. A(C  16,C  15,H  37)          119.67 -0.000033    0.11    119.78   
    93. A(C  14,C  15,H  37)          119.95  0.000392   -0.15    119.80   
    94. A(C  14,C  15,C  16)          120.37 -0.000359    0.04    120.42   
    95. A(C  17,C  16,H  38)          119.43  0.000695   -0.41    119.03   
    96. A(C  15,C  16,H  38)          119.82 -0.000612    0.24    120.06   
    97. A(C  15,C  16,C  17)          120.74 -0.000083    0.17    120.92   
    98. A(O  18,C  17,C  19)          116.97 -0.000255   -0.27    116.70   
    99. A(C  16,C  17,C  19)          119.61  0.000016   -0.21    119.40   
   100. A(C  16,C  17,O  18)          123.42  0.000239    0.48    123.90   
   101. A(C  17,O  18,H  39)          108.24 -0.000900    0.07    108.31   
   102. A(O  20,C  19,C  22)          125.35 -0.000110    0.06    125.41   
   103. A(C  17,C  19,C  22)          119.26  0.000030    0.07    119.32   
   104. A(C  17,C  19,O  20)          115.39  0.000081   -0.13    115.26   
   105. A(C  19,O  20,C  21)          117.87 -0.000540    0.17    118.04   
   106. A(H  41,C  21,H  42)          109.19 -0.000251    0.32    109.51   
   107. A(H  40,C  21,H  42)          109.39  0.000487   -0.45    108.94   
   108. A(H  40,C  21,H  41)          109.18 -0.000257    0.32    109.50   
   109. A(O  20,C  21,H  41)          105.75 -0.000138   -0.22    105.53   
   110. A(O  20,C  21,H  40)          111.61  0.000041    0.04    111.65   
   111. A(O  20,C  21,H  42)          111.61  0.000074    0.03    111.64   
   112. A(C  14,C  22,C  19)          121.31  0.000182    0.04    121.34   
   113. A(C  19,C  22,H  43)          119.95  0.000149   -0.11    119.84   
   114. A(C  14,C  22,H  43)          118.73 -0.000330    0.07    118.80   
   115. A(C   4,C  23,C  24)          120.20 -0.000258    0.01    120.21   
   116. A(C  24,C  23,H  44)          119.63  0.000050    0.12    119.75   
   117. A(C   4,C  23,H  44)          120.16  0.000209   -0.14    120.02   
   118. A(C  25,C  24,H  45)          119.38  0.000742   -0.42    118.96   
   119. A(C  23,C  24,H  45)          119.66 -0.000660    0.23    119.89   
   120. A(C  23,C  24,C  25)          120.95 -0.000082    0.19    121.15   
   121. A(C  24,C  25,O  26)          123.41  0.000398    0.45    123.86   
   122. A(C   2,C  25,O  26)          116.98 -0.000441   -0.23    116.75   
   123. A(C   2,C  25,C  24)          119.60  0.000043   -0.21    119.39   
   124. A(C  25,O  26,H  46)          108.25 -0.000848    0.06    108.30   
   125. D(C   2,O   1,C   0,H  27)    -61.87 -0.000360    0.34    -61.52   
   126. D(C   2,O   1,C   0,H  28)     60.92  0.000307   -0.17     60.75   
   127. D(C   2,O   1,C   0,H  29)    179.53 -0.000043    0.09    179.62   
   128. D(C   3,C   2,O   1,C   0)      0.75  0.000060   -0.14      0.61   
   129. D(C  25,C   2,O   1,C   0)   -179.00  0.000088   -0.20   -179.20   
   130. D(H  30,C   3,C   2,C  25)    179.83  0.000002   -0.01    179.82   
   131. D(C   4,C   3,C   2,C  25)     -1.08  0.000013   -0.03     -1.12   
   132. D(H  30,C   3,C   2,O   1)      0.09  0.000030   -0.07      0.02   
   133. D(C   4,C   3,C   2,O   1)    179.18  0.000041   -0.10    179.08   
   134. D(C  23,C   4,C   3,C   2)      1.57  0.000009   -0.02      1.55   
   135. D(C  23,C   4,C   3,H  30)   -179.33  0.000020   -0.05   -179.38   
   136. D(C   5,C   4,C   3,H  30)     -0.24 -0.000126    0.32      0.07   
   137. D(C   5,C   4,C   3,C   2)   -179.34 -0.000137    0.35   -179.00   
   138. D(C   6,C   5,C   4,C   3)    151.23 -0.001609    5.12    156.35   
   139. D(C   6,C   5,C   4,C  23)    -29.71 -0.001749    5.49    -24.22   
   140. D(H  31,C   5,C   4,C   3)    -27.86 -0.001647    5.18    -22.68   
   141. D(H  31,C   5,C   4,C  23)    151.20 -0.001787    5.56    156.75   
   142. D(H  32,C   6,C   5,C   4)     -0.99  0.000131   -0.25     -1.25   
   143. D(H  32,C   6,C   5,H  31)    178.10  0.000149   -0.31    177.79   
   144. D(C   7,C   6,C   5,H  31)     -1.56  0.000114   -0.23     -1.79   
   145. D(C   7,C   6,C   5,C   4)    179.35  0.000096   -0.17    179.18   
   146. D(C   9,C   7,C   6,H  32)     -1.42  0.000358   -1.19     -2.61   
   147. D(C   9,C   7,C   6,C   5)    178.25  0.000392   -1.27    176.98   
   148. D(O   8,C   7,C   6,H  32)    176.32 -0.000275    0.85    177.17   
   149. D(O   8,C   7,C   6,C   5)     -4.01 -0.000241    0.77     -3.23   
   150. D(H  34,C   9,C   7,C   6)   -155.91  0.000904   -1.13   -157.04   
   151. D(H  33,C   9,C   7,O   8)    146.26  0.000154   -1.97    144.29   
   152. D(H  33,C   9,C   7,C   6)    -35.94 -0.000491    0.08    -35.86   
   153. D(C  10,C   9,C   7,O   8)    -94.25  0.000964   -2.68    -96.93   
   154. D(C  10,C   9,C   7,C   6)     83.55  0.000318   -0.63     82.92   
   155. D(O  11,C  10,C   9,C   7)    -99.14  0.000717   -1.81   -100.95   
   156. D(C  12,C  10,C   9,H  33)   -159.62  0.000630   -1.74   -161.37   
   157. D(C  12,C  10,C   9,C   7)     79.04  0.000465   -1.41     77.63   
   158. D(O  11,C  10,C   9,H  34)    141.96 -0.000309   -1.03    140.92   
   159. D(O  11,C  10,C   9,H  33)     22.20  0.000883   -2.14     20.06   
   160. D(H  35,C  12,C  10,C   9)     -1.35  0.000254   -0.71     -2.06   
   161. D(H  35,C  12,C  10,O  11)    176.77  0.000023   -0.32    176.45   
   162. D(C  13,C  12,C  10,C   9)    178.62  0.000309   -0.84    177.78   
   163. D(C  13,C  12,C  10,O  11)     -3.26  0.000078   -0.44     -3.71   
   164. D(H  36,C  13,C  12,H  35)    178.27  0.000122   -0.28    177.99   
   165. D(H  36,C  13,C  12,C  10)     -1.70  0.000064   -0.15     -1.85   
   166. D(C  14,C  13,C  12,H  35)     -0.87  0.000052   -0.11     -0.98   
   167. D(C  14,C  13,C  12,C  10)    179.17 -0.000006    0.02    179.19   
   168. D(C  22,C  14,C  13,C  12)    -28.51 -0.001897    5.97    -22.54   
   169. D(C  22,C  14,C  13,H  36)    152.35 -0.001985    6.14    158.49   
   170. D(C  15,C  14,C  13,C  12)    151.83 -0.001734    5.54    157.38   
   171. D(C  15,C  14,C  13,H  36)    -27.31 -0.001822    5.72    -21.59   
   172. D(H  37,C  15,C  14,C  22)   -179.36  0.000011   -0.04   -179.39   
   173. D(H  37,C  15,C  14,C  13)      0.31 -0.000151    0.38      0.69   
   174. D(C  16,C  15,C  14,C  22)      1.69  0.000007   -0.02      1.66   
   175. D(C  16,C  15,C  14,C  13)   -178.65 -0.000155    0.40   -178.25   
   176. D(H  38,C  16,C  15,H  37)      0.22 -0.000008    0.02      0.24   
   177. D(H  38,C  16,C  15,C  14)    179.18  0.000000    0.00    179.18   
   178. D(C  17,C  16,C  15,H  37)    179.84 -0.000010    0.02    179.86   
   179. D(C  17,C  16,C  15,C  14)     -1.21 -0.000001    0.00     -1.20   
   180. D(C  19,C  17,C  16,H  38)    179.72  0.000019   -0.04    179.67   
   181. D(C  19,C  17,C  16,C  15)      0.11  0.000026   -0.05      0.06   
   182. D(O  18,C  17,C  16,H  38)      0.29 -0.000010    0.03      0.33   
   183. D(O  18,C  17,C  16,C  15)   -179.32 -0.000004    0.03   -179.29   
   184. D(H  39,O  18,C  17,C  19)   -179.22  0.000027   -0.06   -179.29   
   185. D(H  39,O  18,C  17,C  16)      0.22  0.000057   -0.14      0.08   
   186. D(O  20,C  19,C  17,O  18)      0.43 -0.000043    0.11      0.54   
   187. D(O  20,C  19,C  17,C  16)   -179.04 -0.000073    0.18   -178.86   
   188. D(C  22,C  19,C  17,O  18)    179.93 -0.000014    0.04    179.97   
   189. D(C  22,C  19,C  17,C  16)      0.47 -0.000045    0.11      0.58   
   190. D(C  21,O  20,C  19,C  22)      0.07 -0.000032    0.08      0.15   
   191. D(C  21,O  20,C  19,C  17)    179.54  0.000000    0.01    179.54   
   192. D(H  42,C  21,O  20,C  19)    -61.36 -0.000334    0.21    -61.15   
   193. D(H  41,C  21,O  20,C  19)   -179.98  0.000011   -0.05   -180.04   
   194. D(H  40,C  21,O  20,C  19)     61.40  0.000381   -0.32     61.07   
   195. D(H  43,C  22,C  19,O  20)      0.65 -0.000003    0.01      0.65   
   196. D(H  43,C  22,C  19,C  17)   -178.81 -0.000036    0.08   -178.72   
   197. D(C  14,C  22,C  19,O  20)    179.50  0.000082   -0.21    179.29   
   198. D(C  14,C  22,C  19,C  17)      0.04  0.000048   -0.13     -0.09   
   199. D(H  43,C  22,C  14,C  15)    177.75  0.000054   -0.12    177.62   
   200. D(H  43,C  22,C  14,C  13)     -1.91  0.000214   -0.55     -2.46   
   201. D(C  19,C  22,C  14,C  15)     -1.11 -0.000035    0.08     -1.03   
   202. D(C  19,C  22,C  14,C  13)    179.23  0.000125   -0.34    178.89   
   203. D(H  44,C  23,C   4,C   5)     -1.34  0.000174   -0.45     -1.80   
   204. D(H  44,C  23,C   4,C   3)    177.72  0.000039   -0.08    177.64   
   205. D(C  24,C  23,C   4,C   5)    179.95  0.000107   -0.29    179.66   
   206. D(C  24,C  23,C   4,C   3)     -0.99 -0.000028    0.08     -0.91   
   207. D(H  45,C  24,C  23,H  44)      0.67 -0.000018    0.04      0.71   
   208. D(H  45,C  24,C  23,C   4)    179.39  0.000051   -0.13    179.26   
   209. D(C  25,C  24,C  23,H  44)   -178.75 -0.000034    0.07   -178.68   
   210. D(C  25,C  24,C  23,C   4)     -0.04  0.000035   -0.10     -0.13   
   211. D(O  26,C  25,C  24,H  45)      0.56 -0.000029    0.07      0.63   
   212. D(O  26,C  25,C  24,C  23)    179.99 -0.000020    0.04    180.03   
   213. D(C   2,C  25,C  24,H  45)   -178.90 -0.000025    0.07   -178.83   
   214. D(C   2,C  25,C  24,C  23)      0.53 -0.000017    0.04      0.57   
   215. D(O  26,C  25,C   2,C   3)   -179.47 -0.000008    0.02   -179.45   
   216. D(O  26,C  25,C   2,O   1)      0.30 -0.000033    0.08      0.38   
   217. D(C  24,C  25,C   2,C   3)      0.03 -0.000007    0.02      0.05   
   218. D(C  24,C  25,C   2,O   1)    179.79 -0.000032    0.08    179.87   
   219. D(H  46,O  26,C  25,C  24)     -0.22 -0.000085    0.20     -0.01   
   220. D(H  46,O  26,C  25,C   2)    179.26 -0.000086    0.20    179.46   
    ----------------------------------------------------------------------------

Geometry step timings:
Preparation and reading OPT file:      0.002 s ( 6.897 %)
Internal coordinates            :      0.000 s ( 0.000 %)
B/P matrices and projection     :      0.008 s (27.586 %)
Hessian update/contruction      :      0.003 s (10.345 %)
Making the step                 :      0.010 s (34.483 %)
Converting the step to Cartesian:      0.001 s ( 3.448 %)
Storing new data                :      0.000 s ( 0.000 %)
Checking convergence            :      0.001 s ( 3.448 %)
Final printing                  :      0.004 s (13.793 %)
Total time                      :      0.029 s

Time for energy+gradient        :    454.689 s
Time for complete geometry iter :    454.818 s

         *************************************************************
         *                GEOMETRY OPTIMIZATION CYCLE   4            *
         *************************************************************
---------------------------------
CARTESIAN COORDINATES (ANGSTROEM)
---------------------------------
  C     -0.662616   -7.897102    2.380946
  O     -0.094769   -8.022321    1.087725
  C      0.341330   -6.892298    0.468237
  C      0.290933   -5.608649    1.000387
  C      0.787189   -4.492729    0.288479
  C      0.727323   -3.170017    0.907959
  C      1.508620   -2.106581    0.618037
  C      1.328187   -0.816308    1.312099
  O      0.445243   -0.606361    2.134680
  C      2.328061    0.293807    0.942812
  C      1.858503    0.992558   -0.347642
  O      2.371592    0.718678   -1.424553
  C      0.755320    1.959532   -0.187027
  C      0.286722    2.668043   -1.237909
  C     -0.804770    3.639286   -1.219923
  C     -0.879508    4.621288   -2.216680
  C     -1.895340    5.577401   -2.191649
  C     -2.868027    5.562459   -1.194194
  O     -3.892585    6.455796   -1.119349
  C     -2.821331    4.559708   -0.189963
  O     -3.824085    4.609471    0.726721
  C     -3.840157    3.628281    1.751717
  C     -1.798629    3.619141   -0.214446
  C      1.310164   -4.696067   -0.996073
  C      1.352330   -5.978601   -1.541610
  C      0.882449   -7.081160   -0.829142
  O      0.897526   -8.355856   -1.307239
  H      0.059383   -7.491944    3.103492
  H     -1.555860   -7.257095    2.371357
  H     -0.943691   -8.909433    2.676801
  H     -0.123256   -5.450848    1.990379
  H     -0.013158   -3.027895    1.695647
  H      2.296475   -2.170344   -0.128440
  H      3.324415   -0.115473    0.754815
  H      2.355170    1.002341    1.775965
  H      0.337644    2.080388    0.809296
  H      0.785584    2.509316   -2.194063
  H     -0.131934    4.648918   -3.004385
  H     -1.940098    6.346172   -2.962051
  H     -3.813653    7.073486   -1.864274
  H     -2.936101    3.677383    2.374041
  H     -4.715518    3.857490    2.362008
  H     -3.935218    2.614176    1.340258
  H     -1.766616    2.837916    0.535555
  H      1.662228   -3.851208   -1.578949
  H      1.748798   -6.128993   -2.545021
  H      1.281634   -8.342563   -2.198834

----------------------------
CARTESIAN COORDINATES (A.U.)
----------------------------
  NO LB      ZA    FRAG     MASS         X           Y           Z
   0 C     6.0000    0    12.011   -1.252163  -14.923360    4.499336
   1 O     8.0000    0    15.999   -0.179087  -15.159990    2.055502
   2 C     6.0000    0    12.011    0.645020  -13.024556    0.884840
   3 C     6.0000    0    12.011    0.549783  -10.598810    1.890457
   4 C     6.0000    0    12.011    1.487572   -8.490026    0.545147
   5 C     6.0000    0    12.011    1.374442   -5.990464    1.715795
   6 C     6.0000    0    12.011    2.850879   -3.980861    1.167920
   7 C     6.0000    0    12.011    2.509909   -1.542599    2.479507
   8 O     8.0000    0    15.999    0.841387   -1.145855    4.033961
   9 C     6.0000    0    12.011    4.399398    0.555215    1.781656
  10 C     6.0000    0    12.011    3.512061    1.875663   -0.656948
  11 O     8.0000    0    15.999    4.481660    1.358105   -2.692015
  12 C     6.0000    0    12.011    1.427348    3.702979   -0.353430
  13 C     6.0000    0    12.011    0.541826    5.041871   -2.339308
  14 C     6.0000    0    12.011   -1.520795    6.877254   -2.305320
  15 C     6.0000    0    12.011   -1.662029    8.732969   -4.188918
  16 C     6.0000    0    12.011   -3.581674   10.539760   -4.141617
  17 C     6.0000    0    12.011   -5.419786   10.511524   -2.256699
  18 O     8.0000    0    15.999   -7.355919   12.199687   -2.115263
  19 C     6.0000    0    12.011   -5.331543    8.616600   -0.358979
  20 O     8.0000    0    15.999   -7.226473    8.710639    1.373304
  21 C     6.0000    0    12.011   -7.256846    6.856457    3.310265
  22 C     6.0000    0    12.011   -3.398916    6.839184   -0.405245
  23 C     6.0000    0    12.011    2.475850   -8.874281   -1.882304
  24 C     6.0000    0    12.011    2.555534  -11.297918   -2.913220
  25 C     6.0000    0    12.011    1.667586  -13.381454   -1.566852
  26 O     8.0000    0    15.999    1.696079  -15.790279   -2.470324
  27 H     1.0000    0     1.008    0.112217  -14.157722    5.864750
  28 H     1.0000    0     1.008   -2.940150  -13.713921    4.481215
  29 H     1.0000    0     1.008   -1.783318  -16.836389    5.058422
  30 H     1.0000    0     1.008   -0.232921  -10.300609    3.761270
  31 H     1.0000    0     1.008   -0.024866   -5.721893    3.204308
  32 H     1.0000    0     1.008    4.339710   -4.101357   -0.242717
  33 H     1.0000    0     1.008    6.282234   -0.218211    1.426394
  34 H     1.0000    0     1.008    4.450627    1.894151    3.356088
  35 H     1.0000    0     1.008    0.638054    3.931364    1.529347
  36 H     1.0000    0     1.008    1.484540    4.741919   -4.146179
  37 H     1.0000    0     1.008   -0.249319    8.785183   -5.677466
  38 H     1.0000    0     1.008   -3.666253   11.992526   -5.597466
  39 H     1.0000    0     1.008   -7.206760   13.366952   -3.522967
  40 H     1.0000    0     1.008   -5.548427    6.949247    4.486288
  41 H     1.0000    0     1.008   -8.911038    7.289599    4.463547
  42 H     1.0000    0     1.008   -7.436484    4.940076    2.532720
  43 H     1.0000    0     1.008   -3.338421    5.362884    1.012053
  44 H     1.0000    0     1.008    3.141156   -7.277729   -2.983781
  45 H     1.0000    0     1.008    3.304750  -11.582119   -4.809393
  46 H     1.0000    0     1.008    2.421937  -15.765158   -4.155194

--------------------------------
INTERNAL COORDINATES (ANGSTROEM)
--------------------------------
 C      0   0   0     0.000000000000     0.00000000     0.00000000
 O      1   0   0     1.417939225453     0.00000000     0.00000000
 C      2   1   0     1.360477895495   118.05469058     0.00000000
 C      3   2   1     1.390495611668   125.51403437     0.61210231
 C      4   3   2     1.413633833984   121.55296832   179.07806291
 C      5   4   3     1.461815969571   119.11017942   181.00044626
 C      6   5   4     1.351064763711   126.69747198   156.35122754
 C      7   6   5     1.476171152426   121.09160032   179.17843838
 O      8   7   6     1.224870782634   123.62008498   356.78232043
 C      8   7   6     1.538986190046   115.99264219   176.96737256
 C     10   8   7     1.540781656563   109.27472466    82.90403889
 O     11  10   8     1.223931810351   120.50997477   259.04887703
 C     11  10   8     1.475753477801   115.70998783    77.61968159
 C     13  11  10     1.351267564835   121.20865196   177.77720901
 C     14  13  11     1.461160668778   126.72692664   179.18608634
 C     15  14  13     1.401227682878   119.79666867   157.37548362
 C     16  15  14     1.395238942233   120.41890039   181.74616330
 C     17  16  15     1.393291710182   120.91568018   358.79691676
 O     18  17  16     1.361386044526   123.89799946   180.70897436
 C     18  17  16     1.419918059492   119.40175490     0.05847677
 O     20  18  17     1.359522874341   115.26262648   181.14217774
 C     21  20  18     1.419017192297   118.04000994   179.54484563
 C     20  18  17     1.389671702862   119.32215676     0.57906379
 C      5   4   3     1.401756713091   118.55192299     1.54612514
 C     24   5   4     1.394375040255   120.21430518   359.09299574
 C     25  24   5     1.394287336892   121.14666956   359.86896881
 O     26  25  24     1.361488801498   123.86156934   180.02913959
 H      1   2   3     1.098866596607   111.66232083   298.47714551
 H      1   2   3     1.098902194971   111.65396146    60.75521882
 H      1   2   3     1.091489370886   105.57126567   179.62411971
 H      4   3   2     1.084683320977   119.83060710     0.00000000
 H      6   5   4     1.090395906175   116.86414372   337.32102300
 H      7   6   5     1.087202578304   121.34790806   358.75486863
 H     10   8   7     1.093422914694   111.30146735   324.12752259
 H     10   8   7     1.094029473670   107.48896592   202.95620775
 H     13  11  10     1.087069047579   117.37538579   357.93488253
 H     14  13  11     1.090087310764   116.55779211   358.15138991
 H     16  15  14     1.086329061896   119.79656833     0.68757598
 H     17  16  15     1.089280324222   120.05708486   179.18423484
 H     19  18  17     0.970919055659   108.30675531     0.07877294
 H     22  21  20     1.098643231082   111.65008176    61.07313910
 H     22  21  20     1.091443009229   105.53162895   179.96252950
 H     22  21  20     1.098518969467   111.63857352   298.84957306
 H     23  20  18     1.083438786733   119.84016421   181.27629870
 H     24   5   4     1.085117851833   120.02296550   177.63893031
 H     25  24   5     1.089329337214   119.89258976   179.26500618
 H     27  26  25     0.970905081071   108.30257528     0.00000000

---------------------------
INTERNAL COORDINATES (A.U.)
---------------------------
 C      0   0   0     0.000000000000     0.00000000     0.00000000
 O      1   0   0     2.679516810650     0.00000000     0.00000000
 C      2   1   0     2.570930633739   118.05469058     0.00000000
 C      3   2   1     2.627655896471   125.51403437     0.61210231
 C      4   3   2     2.671380799875   121.55296832   179.07806291
 C      5   4   3     2.762431840682   119.11017942   181.00044626
 C      6   5   4     2.553142392605   126.69747198   156.35122754
 C      7   6   5     2.789559204880   121.09160032   179.17843838
 O      8   7   6     2.314670328621   123.62008498   356.78232043
 C      8   7   6     2.908262423075   115.99264219   176.96737256
 C     10   8   7     2.911655363074   109.27472466    82.90403889
 O     11  10   8     2.312895928157   120.50997477   259.04887703
 C     11  10   8     2.788769914225   115.70998783    77.61968159
 C     13  11  10     2.553525631188   121.20865196   177.77720901
 C     14  13  11     2.761193501647   126.72692664   179.18608634
 C     15  14  13     2.647936571909   119.79666867   157.37548362
 C     16  15  14     2.636619492201   120.41890039   181.74616330
 C     17  16  15     2.632939756907   120.91568018   358.79691676
 O     18  17  16     2.572646786696   123.89799946   180.70897436
 C     18  17  16     2.683256265049   119.40175490     0.05847677
 O     20  18  17     2.569125905306   115.26262648   181.14217774
 C     21  20  18     2.681553872768   118.04000994   179.54484563
 C     20  18  17     2.626098934470   119.32215676     0.57906379
 C      5   4   3     2.648936294127   118.55192299     1.54612514
 C     24   5   4     2.634986954058   120.21430518   359.09299574
 C     25  24   5     2.634821218721   121.14666956   359.86896881
 O     26  25  24     2.572840969231   123.86156934   180.02913959
 H      1   2   3     2.076556925301   111.66232083   298.47714551
 H      1   2   3     2.076624196460   111.65396146    60.75521882
 H      1   2   3     2.062615989060   105.57126567   179.62411971
 H      4   3   2     2.049754418678   119.83060710     0.00000000
 H      6   5   4     2.060549640219   116.86414372   337.32102300
 H      7   6   5     2.054515125087   121.34790806   358.75486863
 H     10   8   7     2.066269857326   111.30146735   324.12752259
 H     10   8   7     2.067416087674   107.48896592   202.95620775
 H     13  11  10     2.054262788587   117.37538579   357.93488253
 H     14  13  11     2.059966479406   116.55779211   358.15138991
 H     16  15  14     2.052864418303   119.79656833     0.68757598
 H     17  16  15     2.058441495848   120.05708486   179.18423484
 H     19  18  17     1.834771113401   108.30675531     0.07877294
 H     22  21  20     2.076134825632   111.65008176    61.07313910
 H     22  21  20     2.062528378226   105.53162895   179.96252950
 H     22  21  20     2.075900005209   111.63857352   298.84957306
 H     23  20  18     2.047402589793   119.84016421   181.27629870
 H     24   5   4     2.050575562993   120.02296550   177.63893031
 H     25  24   5     2.058534116981   119.89258976   179.26500618
 H     27  26  25     1.834744705256   108.30257528     0.00000000

------------------------------------------------------------------------------
                   ___                                                        
                  /   \      - P O W E R E D   B Y -                         
                 /     \                                                     
                 |  |  |   _    _      __       _____    __    __             
                 |  |  |  | |  | |    /  \     |  _  \  |  |  /  |          
                  \  \/   | |  | |   /    \    | | | |  |  | /  /          
                 / \  \   | |__| |  /  /\  \   | |_| |  |  |/  /          
                |  |  |   |  __  | /  /__\  \  |    /   |      \           
                |  |  |   | |  | | |   __   |  |    \   |  |\   \          
                \     /   | |  | | |  |  |  |  | |\  \  |  | \   \       
                 \___/    |_|  |_| |__|  |__|  |_| \__\ |__|  \__/        
                                                                              
                      - O R C A' S   B I G   F R I E N D -                    
                                      &                                       
                       - I N T E G R A L  F E E D E R -                       
                                                                              
 v1 FN, 2020, v2 2021, v3 2022-2024                                           
------------------------------------------------------------------------------


----------------------
SHARK INTEGRAL PACKAGE
----------------------

Number of atoms                             ...     47
Number of basis functions                   ...    418
Number of shells                            ...    202
Maximum angular momentum                    ...      2
Integral batch strategy                     ... SHARK/LIBINT Hybrid
RI-J (if used) integral strategy            ... SPLIT-RIJ (Revised 2003 algorithm where possible)
Printlevel                                  ...      1
Contraction scheme used                     ... SEGMENTED contraction
Prescreening option                         ... SCHWARTZ
   Thresh                                   ... 2.500e-11
   Tcut                                     ... 2.500e-12
   Tpresel                                  ... 2.500e-12 
Coulomb Range Separation                    ... NOT USED
Exchange Range Separation                   ... NOT USED
Multipole approximations                    ... NOT USED
Finite Nucleus Model                        ... NOT USED
CABS basis                                  ... NOT available
Auxiliary Coulomb fitting basis             ... AVAILABLE
   # of basis functions in Aux-J            ...   1543
   # of shells in Aux-J                     ...    505
   Maximum angular momentum in Aux-J        ...      4
Auxiliary J/K fitting basis                 ... NOT available
Auxiliary Correlation fitting basis         ... NOT available
Auxiliary 'external' fitting basis          ... NOT available

Checking pre-screening integrals            ... done (  0.0 sec) Dimension = 202
   => SHARK Basis and OBASIS are compatible. Storing Pre-screening
Shell pair information
Shell pair cut-off parameter TPreSel        ...   2.5e-12
Total number of shell pairs                 ...     20503
Shell pairs after pre-screening             ...     10402
Total number of primitive shell pairs       ...    118482
Primitive shell pairs kept                  ...     33364
          la=0 lb=0:   3542 shell pairs
          la=1 lb=0:   3601 shell pairs
          la=1 lb=1:    914 shell pairs
          la=2 lb=0:   1434 shell pairs
          la=2 lb=1:    758 shell pairs
          la=2 lb=2:    153 shell pairs

Checking whether 4 symmetric matrices of dimension 418 fit in memory
:Max Core in MB      =   4096.00
 MB in use           =     16.46
 MB left             =   4079.54
 MB needed           =      2.67
 Data fit in memory  = YES
Calculating RI/J V-Matrix + Cholesky decomp.... done (  0.2 sec)
Calculating Nuclear repulsion               ... done (  0.0 sec) ENN=   2143.430457591237 Eh

Diagonalization of the overlap matrix:
Smallest eigenvalue                        ... 4.199e-04
Time for diagonalization                   ...    0.023 sec
Threshold for overlap eigenvalues          ... 1.000e-07
Number of eigenvalues below threshold      ... 0
Time for construction of square roots      ...    0.013 sec
Total time needed                          ...    0.039 sec

-------------------
DFT GRID GENERATION
-------------------

General Integration Accuracy     IntAcc      ... 4.388
Radial Grid Type                 RadialGrid  ... OptM3 with GC (2021)
Angular Grid (max. ang.)         AngularGrid ... 4 (Lebedev-302)
Angular grid pruning method      GridPruning ... 4 (adaptive)
Weight generation scheme         WeightScheme... mBecke (2022)
Basis function cutoff            BFCut       ... 1.0000e-11
Integration weight cutoff        WCut        ... 1.0000e-14
Partially contracted basis set               ... off
Rotationally invariant grid construction     ... off
Angular grids for H and He will be reduced by one unit

Total number of grid points                  ...   226240
Total number of batches                      ...     3559
Average number of points per batch           ...       63
Average number of grid points per atom       ...     4814

--------------------
COSX GRID GENERATION
--------------------

GRIDX 1
-------
General Integration Accuracy     IntAcc      ... 3.816
Radial Grid Type                 RadialGrid  ... OptM3 with GC (2021)
Angular Grid (max. ang.)         AngularGrid ... 1 (Lebedev-50)
Angular grid pruning method      GridPruning ... 4 (adaptive)
Weight generation scheme         WeightScheme... mBecke (2022)
Basis function cutoff            BFCut       ... 1.0000e-11
Integration weight cutoff        WCut        ... 1.0000e-14
Partially contracted basis set               ... on
Rotationally invariant grid construction     ... off
Angular grids for H and He will be reduced by one unit

Total number of grid points                  ...    28666
Total number of batches                      ...      250
Average number of points per batch           ...      114
Average number of grid points per atom       ...      610
UseSFitting                                  ... on

GRIDX 2
-------
General Integration Accuracy     IntAcc      ... 4.020
Radial Grid Type                 RadialGrid  ... OptM3 with GC (2021)
Angular Grid (max. ang.)         AngularGrid ... 2 (Lebedev-110)
Angular grid pruning method      GridPruning ... 4 (adaptive)
Weight generation scheme         WeightScheme... mBecke (2022)
Basis function cutoff            BFCut       ... 1.0000e-11
Integration weight cutoff        WCut        ... 1.0000e-14
Partially contracted basis set               ... on
Rotationally invariant grid construction     ... off
Angular grids for H and He will be reduced by one unit

Total number of grid points                  ...    62751
Total number of batches                      ...      514
Average number of points per batch           ...      122
Average number of grid points per atom       ...     1335
UseSFitting                                  ... on

GRIDX 3
-------
General Integration Accuracy     IntAcc      ... 4.338
Radial Grid Type                 RadialGrid  ... OptM3 with GC (2021)
Angular Grid (max. ang.)         AngularGrid ... 3 (Lebedev-194)
Angular grid pruning method      GridPruning ... 4 (adaptive)
Weight generation scheme         WeightScheme... mBecke (2022)
Basis function cutoff            BFCut       ... 1.0000e-11
Integration weight cutoff        WCut        ... 1.0000e-14
Partially contracted basis set               ... on
Rotationally invariant grid construction     ... off
Angular grids for H and He will be reduced by one unit

Total number of grid points                  ...   137510
Total number of batches                      ...     1096
Average number of points per batch           ...      125
Average number of grid points per atom       ...     2926
UseSFitting                                  ... on
Grids setup in   8.5 sec
Initializing property integral containers    ... done (  0.0 sec)

SHARK setup successfully completed in   9.2 seconds

Maximum memory used throughout the entire STARTUP-calculation: 91.5 MB
Occupation numbers will be reassigned to an Aufbau configuration
             **** ENERGY FILE WAS UPDATED (curcumin.en.tmp) ****
Finished Guess after   0.2 sec
Maximum memory used throughout the entire GUESS-calculation: 30.3 MB
----------------------------------------D-I-I-S--------------------------------------------
Iteration    Energy (Eh)           Delta-E    RMSDP     MaxDP     DIISErr   Damp  Time(sec)
-------------------------------------------------------------------------------------------
               ***  Starting incremental Fock matrix formation  ***
    1    -1262.7810741289031284     0.00e+00  2.12e-04  6.82e-03  3.00e-02  0.700  34.0
    2    -1262.7881460662351856    -7.07e-03  2.04e-04  6.58e-03  2.40e-02  0.700  13.8
                               ***Turning on AO-DIIS***
    3    -1262.7938488152076388    -5.70e-03  1.75e-04  5.59e-03  1.82e-02  0.700  13.8
    4    -1262.7981038898083170    -4.26e-03  4.54e-04  1.42e-02  1.33e-02  0.000  13.4
                              *** Initializing SOSCF ***
---------------------------------------S-O-S-C-F--------------------------------------
Iteration    Energy (Eh)           Delta-E    RMSDP     MaxDP     MaxGrad    Time(sec)
--------------------------------------------------------------------------------------
    5    -1262.8088727540243781    -1.08e-02  3.10e-05  6.40e-04  7.57e-04    14.4
               *** Restarting incremental Fock matrix formation ***
    6    -1262.8088987278465538    -2.60e-05  2.32e-05  5.95e-04  1.90e-04    33.9
    7    -1262.8089057845504612    -7.06e-06  1.19e-05  5.15e-04  6.64e-05    21.0
    8    -1262.8089051185834251     6.66e-07  6.98e-06  3.00e-04  1.16e-04    19.0
    9    -1262.8089063671418444    -1.25e-06  2.17e-06  9.95e-05  1.58e-05    17.3
   10    -1262.8089063298216388     3.73e-08  1.40e-06  7.27e-05  2.61e-05    15.9
   11    -1262.8089063894840365    -5.97e-08  4.11e-07  1.61e-05  3.03e-06    13.0
   12    -1262.8089063885663563     9.18e-10  2.38e-07  9.15e-06  4.25e-06    10.8
                 **** Energy Check signals convergence ****

               *****************************************************
               *                     SUCCESS                       *
               *           SCF CONVERGED AFTER  12 CYCLES          *
               *****************************************************

Recomputing exchange energy using gridx3       ... done (   57.594 sec)
Old exchange energy                            :    -33.082461322 Eh
New exchange energy                            :    -33.082570989 Eh
Exchange energy change after final integration :     -0.000109667 Eh
Total energy after final integration           :  -1262.809016064 Eh
             **** ENERGY FILE WAS UPDATED (curcumin.en.tmp) ****

----------------
TOTAL SCF ENERGY
----------------

Total Energy       :      -1262.80901606362704 Eh          -34362.78030 eV

Components:
Nuclear Repulsion  :       2143.43045759123652 Eh           58325.70797 eV
Electronic Energy  :      -3406.23936398796468 Eh          -92688.48529 eV
One Electron Energy:      -5980.28183090957373 Eh         -162731.74174 eV
Two Electron Energy:       2574.04246692160905 Eh           70043.25646 eV

Virial components:
Potential Energy   :      -2518.24278052694262 Eh          -68524.86980 eV
Kinetic Energy     :       1255.43376446331558 Eh           34162.08950 eV
Virial Ratio       :          2.00587466404766

DFT components:
N(Alpha)           :       96.999959350275 electrons
N(Beta)            :       96.999959350275 electrons
N(Total)           :      193.999918700551 electrons
E(X)               :     -131.491013615413 Eh       
E(C)               :       -7.825980831209 Eh       
E(XC)              :     -139.316994446622 Eh       

---------------
SCF CONVERGENCE
---------------

  Last Energy change         ...   -9.1768e-10  Tolerance :   1.0000e-08
  Last MAX-Density change    ...    9.1496e-06  Tolerance :   1.0000e-07
  Last RMS-Density change    ...    2.3833e-07  Tolerance :   5.0000e-09
  Last DIIS Error            ...    7.5666e-04  Tolerance :   5.0000e-07
  Last Orbital Gradient      ...    4.2484e-06  Tolerance :   1.0000e-05
  Last Orbital Rotation      ...    1.0820e-05  Tolerance :   1.0000e-05


Total SCF time: 0 days 0 hours 4 min 48 sec 
Finished LeanSCF after 288.2 sec

Maximum memory used throughout the entire LEANSCF-calculation: 59.2 MB

-------------------------   --------------------
FINAL SINGLE POINT ENERGY     -1262.809016063627
-------------------------   --------------------

------------------------------------------------------------------------------
                         ORCA SCF GRADIENT CALCULATION
------------------------------------------------------------------------------

Nuc. rep. gradient        (SHARK) ... done (  0.0 sec)
HCore & Overlap gradient  (SHARK) ... done (  2.2 sec)
Split-RIJ-J gradient      (SHARK) ... done ( 10.6 sec)
COSX-gradient                     ... done (114.0 sec)
XC gradient                       ... done ( 24.6 sec)

------------------
CARTESIAN GRADIENT
------------------

   1   C   :    0.000011572   -0.000088889   -0.000107843
   2   O   :    0.000179484    0.000069008   -0.000031606
   3   C   :   -0.000646490   -0.000025975    0.001329436
   4   C   :    0.000936177   -0.000516970    0.000063907
   5   C   :    0.000601663   -0.001464314   -0.000375344
   6   C   :   -0.000355279    0.001148084    0.000345150
   7   C   :    0.001883089   -0.000090443    0.001970586
   8   C   :   -0.004470947   -0.000179936   -0.001447957
   9   O   :    0.001648286   -0.000277833   -0.000131005
  10   C   :    0.002413132   -0.000166596    0.001706646
  11   C   :   -0.000650438    0.000194524   -0.002848121
  12   O   :   -0.000605239    0.000018985    0.001397503
  13   C   :    0.001828218    0.000859845    0.000788457
  14   C   :    0.000657775   -0.001299375   -0.000067745
  15   C   :   -0.000845041    0.001501837    0.000226441
  16   C   :    0.000464810    0.001183360   -0.000099810
  17   C   :    0.001016157   -0.001487299    0.000834458
  18   C   :   -0.000421183    0.001942507   -0.001626131
  19   O   :   -0.001017627   -0.000536086    0.001537596
  20   C   :   -0.000546633    0.000073418    0.000597353
  21   O   :    0.000170140   -0.000044973   -0.000113315
  22   C   :   -0.000044296    0.000074720   -0.000111823
  23   C   :   -0.000229901   -0.001175039   -0.000799290
  24   C   :   -0.000767225    0.001086230   -0.000850177
  25   C   :   -0.000589155    0.000303644    0.001574225
  26   C   :    0.001333479   -0.000453621   -0.003306023
  27   O   :   -0.000749224   -0.001013367    0.001583946
  28   H   :   -0.000092735    0.000263366    0.000165423
  29   H   :    0.000018083    0.000319134    0.000151670
  30   H   :    0.000206637   -0.000154329   -0.000510356
  31   H   :   -0.000015124   -0.000200933   -0.000010382
  32   H   :   -0.000906498    0.000399576   -0.000932112
  33   H   :    0.000026620   -0.000684932   -0.000138768
  34   H   :    0.000212031    0.000443163   -0.000146715
  35   H   :   -0.000104700   -0.000053940    0.000157367
  36   H   :   -0.000464937    0.000624622   -0.000110809
  37   H   :   -0.000944484   -0.001068280   -0.000271229
  38   H   :   -0.000028599   -0.000042802    0.000096899
  39   H   :   -0.000066616    0.000182621   -0.000044356
  40   H   :    0.000421242   -0.000185433   -0.000288558
  41   H   :    0.000179980   -0.000295286    0.000052346
  42   H   :   -0.000093177    0.000430984   -0.000366758
  43   H   :    0.000256726   -0.000208535    0.000098798
  44   H   :    0.000219547   -0.000097272   -0.000053323
  45   H   :   -0.000094302    0.000228275    0.000381228
  46   H   :    0.000012515   -0.000062715   -0.000149110
  47   H   :    0.000052487    0.000527270   -0.000120773

Difference to translation invariance:
           :   -0.0000000001   -0.0000000000   -0.0000000000

Difference to rotation invariance:
           :   -0.0000131738    0.0000212742    0.0000421224

Norm of the Cartesian gradient     ...    0.0108633149
RMS gradient                       ...    0.0009148562
MAX gradient                       ...    0.0044709469

-------
TIMINGS
-------

Total SCF gradient time     ....      151.364 sec

Densities                   ....       0.008 sec  (  0.0%)
One electron gradient       ....       2.151 sec  (  1.4%)
RI-J Coulomb gradient       ....      10.557 sec  (  7.0%)
COSX gradient               ....     114.021 sec  ( 75.3%)
XC gradient                 ....      24.627 sec  ( 16.3%)

Maximum memory used throughout the entire SCFGRAD-calculation: 66.6 MB
------------------------------------------------------------------------------
                         ORCA GEOMETRY RELAXATION STEP
------------------------------------------------------------------------------

Reading the OPT-File                    .... done
Getting information on internals        .... done
Copying old internal coords+grads       .... done
Making the new internal coordinates     .... (2022 redundants) done
Validating the new internal coordinates .... (2022 redundants) done
Calculating the B-matrix                .... done
Calculating the G,G- and P matrices     .... done
Transforming gradient to internals      .... done
Projecting the internal gradient        .... done
Number of atoms                         ....  47
Number of internal coordinates          .... 220
Current Energy                          .... -1262.809016064 Eh
Current gradient norm                   ....     0.010863315 Eh/bohr
Maximum allowed component of the step   ....  0.300
Current trust radius                    ....  0.450
Updating the Hessian (BFGS)             .... done
Forming the augmented Hessian           .... done
Diagonalizing the augmented Hessian     .... done
Last element of RFO vector              ....  0.875499849
Lowest eigenvalues of augmented Hessian:
 -0.002448229  0.007471332  0.012683439  0.012775945  0.012777490
Length of the computed step             ....  0.551934296
Warning: the length of the step is outside the trust region - taking restricted step instead
The input lambda is                     ....     0.004164
   iter:   5  x=   -0.001298  g=  337.692975 f(x)=     0.593161
   iter:  10  x=   -0.004178  g=   43.209770 f(x)=     0.000000
The output lambda is                    ....    -0.004178 (12 iterations)
The final length of the internal step   ....  0.450000000
Converting the step to Cartesian space:
 Initial RMS(Int)=    0.0303389938
Transforming coordinates:
 Iter   0:  RMS(Cart)=    0.3093067728 RMS(Int)=    0.4246341301
 Iter   5:  RMS(Cart)=    0.0000105475 RMS(Int)=    0.0000027932
done
Storing new coordinates                 .... done
The predicted energy change is          ....    -0.001432332
Previously predicted energy change      ....    -0.001338438
Actually observed energy change         ....    -0.001464729
Ratio of predicted to observed change   ....     1.094356594
New trust radius                        ....     0.675000000

                                .--------------------.
          ----------------------|Geometry convergence|-------------------------
          Item                value                   Tolerance       Converged
          ---------------------------------------------------------------------
          Energy change      -0.0014647288            0.0000050000      NO
          RMS gradient        0.0005709249            0.0001000000      NO
          MAX gradient        0.0020568071            0.0003000000      NO
          RMS step            0.0303389938            0.0020000000      NO
          MAX step            0.1538090162            0.0040000000      NO
          -------------------------------------------------------------------------
          ........................................................
          Max(Bonds)      0.0054      Max(Angles)    0.98
          Max(Dihed)        8.81      Max(Improp)    0.00
          ---------------------------------------------------------------------

The optimization has not yet converged - more geometry cycles are needed


    ---------------------------------------------------------------------------
                         Redundant Internal Coordinates
                            (Angstroem and degrees)

        Definition                    Value    dE/dq     Step     New-Value
    ----------------------------------------------------------------------------
     1. B(O   1,C   0)                1.4179 -0.000302  0.0008    1.4187   
     2. B(C   2,O   1)                1.3605 -0.000594 -0.0003    1.3602   
     3. B(C   3,C   2)                1.3905 -0.000348 -0.0009    1.3896   
     4. B(C   4,C   3)                1.4136  0.000149  0.0010    1.4146   
     5. B(C   5,C   4)                1.4618  0.001178 -0.0050    1.4568   
     6. B(C   6,C   5)                1.3511  0.000043  0.0013    1.3524   
     7. B(C   7,C   6)                1.4762  0.000003 -0.0023    1.4738   
     8. B(O   8,C   7)                1.2249 -0.001324  0.0010    1.2259   
     9. B(C   9,C   7)                1.5390  0.001652  0.0008    1.5398   
    10. B(C  10,C   9)                1.5408  0.001501  0.0016    1.5424   
    11. B(O  11,C  10)                1.2239 -0.001488  0.0010    1.2249   
    12. B(C  12,C  10)                1.4758 -0.000069 -0.0023    1.4735   
    13. B(C  13,C  12)                1.3513  0.000054  0.0013    1.3526   
    14. B(C  14,C  13)                1.4612  0.001295 -0.0054    1.4558   
    15. B(C  15,C  14)                1.4012  0.000220 -0.0005    1.4007   
    16. B(C  16,C  15)                1.3952 -0.000080  0.0001    1.3953   
    17. B(C  17,C  16)                1.3933  0.000555 -0.0018    1.3915   
    18. B(O  18,C  17)                1.3614  0.000044 -0.0015    1.3599   
    19. B(C  19,C  17)                1.4199  0.000210  0.0030    1.4229   
    20. B(O  20,C  19)                1.3595 -0.000645 -0.0003    1.3592   
    21. B(C  21,O  20)                1.4190 -0.000242  0.0007    1.4197   
    22. B(C  22,C  19)                1.3897  0.000158 -0.0020    1.3876   
    23. B(C  22,C  14)                1.4139 -0.000544  0.0026    1.4165   
    24. B(C  23,C   4)                1.4018 -0.000429  0.0010    1.4027   
    25. B(C  24,C  23)                1.3944  0.000406 -0.0010    1.3934   
    26. B(C  25,C  24)                1.3943  0.000023 -0.0007    1.3936   
    27. B(C  25,C   2)                1.4183  0.000854  0.0016    1.4199   
    28. B(O  26,C  25)                1.3615 -0.000066 -0.0012    1.3603   
    29. B(H  27,C   0)                1.0989  0.000145 -0.0000    1.0988   
    30. B(H  28,C   0)                1.0989  0.000170 -0.0000    1.0989   
    31. B(H  29,C   0)                1.0915 -0.000048 -0.0003    1.0912   
    32. B(H  30,C   3)                1.0847 -0.000033  0.0002    1.0848   
    33. B(H  31,C   5)                1.0904 -0.000006  0.0005    1.0909   
    34. B(H  32,C   6)                1.0872  0.000155 -0.0001    1.0871   
    35. B(H  33,C   9)                1.0934  0.000053 -0.0004    1.0930   
    36. B(H  34,C   9)                1.0940  0.000082 -0.0005    1.0935   
    37. B(H  35,C  12)                1.0871  0.000147 -0.0002    1.0869   
    38. B(H  36,C  13)                1.0901 -0.000039  0.0005    1.0906   
    39. B(H  37,C  15)                1.0863 -0.000091  0.0001    1.0864   
    40. B(H  38,C  16)                1.0893  0.000163  0.0001    1.0894   
    41. B(H  39,O  18)                0.9709  0.000138 -0.0000    0.9709   
    42. B(H  40,C  21)                1.0986  0.000165 -0.0000    1.0986   
    43. B(H  41,C  21)                1.0914 -0.000040 -0.0003    1.0911   
    44. B(H  42,C  21)                1.0985  0.000133 -0.0000    1.0985   
    45. B(H  43,C  22)                1.0834  0.000040 -0.0000    1.0834   
    46. B(H  44,C  23)                1.0851 -0.000058 -0.0000    1.0851   
    47. B(H  45,C  24)                1.0893  0.000151  0.0001    1.0894   
    48. B(H  46,O  26)                0.9709  0.000139 -0.0001    0.9708   
    49. A(O   1,C   0,H  28)          111.65  0.000201    0.01    111.66   
    50. A(H  27,C   0,H  28)          108.97 -0.000302   -0.26    108.71   
    51. A(H  28,C   0,H  29)          109.46  0.000343    0.15    109.61   
    52. A(H  27,C   0,H  29)          109.45  0.000299    0.16    109.61   
    53. A(O   1,C   0,H  29)          105.57 -0.000851   -0.01    105.57   
    54. A(O   1,C   0,H  27)          111.66  0.000318   -0.04    111.63   
    55. A(C   0,O   1,C   2)          118.05  0.000115    0.09    118.15   
    56. A(O   1,C   2,C   3)          125.51  0.000116    0.02    125.54   
    57. A(O   1,C   2,C  25)          115.35 -0.000340   -0.03    115.33   
    58. A(C   3,C   2,C  25)          119.13  0.000224    0.00    119.13   
    59. A(C   4,C   3,H  30)          118.61  0.000173   -0.02    118.59   
    60. A(C   2,C   3,H  30)          119.83 -0.000234   -0.05    119.78   
    61. A(C   2,C   3,C   4)          121.55  0.000060    0.06    121.62   
    62. A(C   3,C   4,C  23)          118.55  0.000161   -0.13    118.42   
    63. A(C   3,C   4,C   5)          119.11  0.001009   -0.25    118.86   
    64. A(C   5,C   4,C  23)          122.34 -0.001170    0.38    122.72   
    65. A(C   4,C   5,H  31)          116.86  0.000688   -0.02    116.84   
    66. A(C   4,C   5,C   6)          126.70 -0.001359    0.91    127.61   
    67. A(C   6,C   5,H  31)          116.43  0.000672   -0.89    115.54   
    68. A(C   5,C   6,H  32)          121.35 -0.001083    0.11    121.46   
    69. A(C   7,C   6,H  32)          117.56  0.000299   -0.02    117.54   
    70. A(C   5,C   6,C   7)          121.09  0.000784   -0.09    121.00   
    71. A(O   8,C   7,C   9)          120.39 -0.000123   -0.18    120.21   
    72. A(C   6,C   7,C   9)          115.99 -0.000379   -0.12    115.87   
    73. A(C   6,C   7,O   8)          123.62  0.000505    0.13    123.75   
    74. A(H  33,C   9,H  34)          110.53  0.000115    0.72    111.26   
    75. A(C   7,C   9,H  34)          107.49  0.000098   -0.28    107.21   
    76. A(C   7,C   9,C  10)          109.27 -0.000663   -0.25    109.02   
    77. A(C  10,C   9,H  34)          110.59 -0.000088    0.12    110.71   
    78. A(C   7,C   9,H  33)          111.30  0.000363    0.02    111.32   
    79. A(C  10,C   9,H  33)          107.66  0.000162   -0.36    107.30   
    80. A(O  11,C  10,C  12)          123.76  0.000505    0.20    123.96   
    81. A(C   9,C  10,C  12)          115.71 -0.000390   -0.10    115.61   
    82. A(C   9,C  10,O  11)          120.51 -0.000108   -0.13    120.38   
    83. A(C  10,C  12,H  35)          117.38  0.000391   -0.06    117.31   
    84. A(C  13,C  12,H  35)          121.42 -0.001176    0.16    121.57   
    85. A(C  10,C  12,C  13)          121.21  0.000785   -0.09    121.11   
    86. A(C  14,C  13,H  36)          116.71  0.000802   -0.09    116.62   
    87. A(C  12,C  13,H  36)          116.56  0.000742   -0.89    115.66   
    88. A(C  12,C  13,C  14)          126.73 -0.001544    0.98    127.71   
    89. A(C  15,C  14,C  22)          118.58  0.000155   -0.13    118.45   
    90. A(C  13,C  14,C  22)          121.63 -0.001638    0.38    122.01   
    91. A(C  13,C  14,C  15)          119.80  0.001484   -0.26    119.54   
    92. A(C  16,C  15,H  37)          119.78  0.000278    0.03    119.81   
    93. A(C  14,C  15,H  37)          119.80  0.000154   -0.16    119.64   
    94. A(C  14,C  15,C  16)          120.42 -0.000433    0.12    120.54   
    95. A(C  17,C  16,H  38)          119.03 -0.000434   -0.24    118.79   
    96. A(C  15,C  16,H  38)          120.06 -0.000217    0.22    120.28   
    97. A(C  15,C  16,C  17)          120.92  0.000651    0.02    120.93   
    98. A(O  18,C  17,C  19)          116.70 -0.001159   -0.03    116.67   
    99. A(C  16,C  17,C  19)          119.40 -0.000729   -0.06    119.35   
   100. A(C  16,C  17,O  18)          123.90  0.001888    0.09    123.98   
   101. A(C  17,O  18,H  39)          108.31 -0.000962    0.24    108.55   
   102. A(O  20,C  19,C  22)          125.41  0.000007    0.05    125.46   
   103. A(C  17,C  19,C  22)          119.32  0.000173    0.03    119.36   
   104. A(C  17,C  19,O  20)          115.26 -0.000180   -0.08    115.18   
   105. A(C  19,O  20,C  21)          118.04  0.000214    0.05    118.09   
   106. A(H  41,C  21,H  42)          109.51  0.000295    0.18    109.69   
   107. A(H  40,C  21,H  42)          108.94 -0.000338   -0.26    108.69   
   108. A(H  40,C  21,H  41)          109.50  0.000286    0.18    109.69   
   109. A(O  20,C  21,H  41)          105.53 -0.000887    0.00    105.53   
   110. A(O  20,C  21,H  40)          111.65  0.000340   -0.04    111.61   
   111. A(O  20,C  21,H  42)          111.64  0.000309   -0.04    111.60   
   112. A(C  14,C  22,C  19)          121.34  0.000182    0.01    121.36   
   113. A(C  19,C  22,H  43)          119.84  0.000155   -0.14    119.70   
   114. A(C  14,C  22,H  43)          118.80 -0.000337    0.12    118.92   
   115. A(C   4,C  23,C  24)          120.21 -0.000287    0.06    120.28   
   116. A(C  24,C  23,H  44)          119.75  0.000604   -0.03    119.72   
   117. A(C   4,C  23,H  44)          120.02 -0.000318   -0.04    119.99   
   118. A(C  25,C  24,H  45)          118.96 -0.000329   -0.28    118.68   
   119. A(C  23,C  24,H  45)          119.89 -0.000231    0.22    120.11   
   120. A(C  23,C  24,C  25)          121.15  0.000560    0.06    121.21   
   121. A(C  24,C  25,O  26)          123.86  0.002057    0.03    123.89   
   122. A(C   2,C  25,O  26)          116.75 -0.001338    0.03    116.78   
   123. A(C   2,C  25,C  24)          119.39 -0.000719   -0.06    119.32   
   124. A(C  25,O  26,H  46)          108.30 -0.000955    0.23    108.54   
   125. D(C   2,O   1,C   0,H  27)    -61.52 -0.000027    0.35    -61.17   
   126. D(C   2,O   1,C   0,H  28)     60.76 -0.000045    0.00     60.76   
   127. D(C   2,O   1,C   0,H  29)    179.62 -0.000041    0.18    179.80   
   128. D(C   3,C   2,O   1,C   0)      0.61  0.000059   -0.26      0.36   
   129. D(C  25,C   2,O   1,C   0)   -179.20  0.000069   -0.32   -179.52   
   130. D(H  30,C   3,C   2,C  25)    179.82 -0.000009    0.02    179.84   
   131. D(C   4,C   3,C   2,C  25)     -1.12 -0.000052    0.09     -1.03   
   132. D(H  30,C   3,C   2,O   1)      0.02  0.000002   -0.05     -0.03   
   133. D(C   4,C   3,C   2,O   1)    179.08 -0.000040    0.03    179.10   
   134. D(C  23,C   4,C   3,C   2)      1.55  0.000051   -0.14      1.41   
   135. D(C  23,C   4,C   3,H  30)   -179.38  0.000005   -0.07   -179.45   
   136. D(C   5,C   4,C   3,H  30)      0.07 -0.000029    0.29      0.36   
   137. D(C   5,C   4,C   3,C   2)   -179.00  0.000017    0.22   -178.78   
   138. D(C   6,C   5,C   4,C   3)    156.35 -0.001217    7.63    163.99   
   139. D(C   6,C   5,C   4,C  23)    -24.22 -0.001245    7.99    -16.22   
   140. D(H  31,C   5,C   4,C   3)    -22.68 -0.001295    7.81    -14.87   
   141. D(H  31,C   5,C   4,C  23)    156.75 -0.001323    8.17    164.93   
   142. D(H  32,C   6,C   5,C   4)     -1.25 -0.000111    0.03     -1.22   
   143. D(H  32,C   6,C   5,H  31)    177.79 -0.000033   -0.15    177.64   
   144. D(C   7,C   6,C   5,H  31)     -1.79 -0.000094    0.04     -1.75   
   145. D(C   7,C   6,C   5,C   4)    179.18 -0.000172    0.22    179.39   
   146. D(C   9,C   7,C   6,H  32)     -2.62 -0.000576    2.05     -0.57   
   147. D(C   9,C   7,C   6,C   5)    176.97 -0.000523    1.87    178.84   
   148. D(O   8,C   7,C   6,H  32)    177.19  0.000634   -2.62    174.57   
   149. D(O   8,C   7,C   6,C   5)     -3.22  0.000687   -2.80     -6.02   
   150. D(H  34,C   9,C   7,C   6)   -157.04  0.000440   -4.27   -161.31   
   151. D(H  33,C   9,C   7,O   8)    144.31 -0.000306    1.17    145.48   
   152. D(H  33,C   9,C   7,C   6)    -35.87  0.000864   -3.54    -39.41   
   153. D(C  10,C   9,C   7,O   8)    -96.92 -0.000306    0.58    -96.34   
   154. D(C  10,C   9,C   7,C   6)     82.90  0.000864   -4.13     78.77   
   155. D(O  11,C  10,C   9,C   7)   -100.95  0.000141   -2.08   -103.03   
   156. D(C  12,C  10,C   9,H  33)   -161.37  0.000612   -3.58   -164.94   
   157. D(C  12,C  10,C   9,C   7)     77.62  0.000462   -3.25     74.37   
   158. D(O  11,C  10,C   9,H  34)    140.92  0.000481   -1.68    139.24   
   159. D(O  11,C  10,C   9,H  33)     20.06  0.000291   -2.41     17.66   
   160. D(H  35,C  12,C  10,C   9)     -2.07 -0.000107    0.05     -2.02   
   161. D(H  35,C  12,C  10,O  11)    176.45  0.000216   -1.13    175.33   
   162. D(C  13,C  12,C  10,C   9)    177.78 -0.000054   -0.16    177.62   
   163. D(C  13,C  12,C  10,O  11)     -3.70  0.000268   -1.33     -5.03   
   164. D(H  36,C  13,C  12,H  35)    177.99 -0.000036   -0.09    177.90   
   165. D(H  36,C  13,C  12,C  10)     -1.85 -0.000094    0.12     -1.73   
   166. D(C  14,C  13,C  12,H  35)     -0.98 -0.000072    0.03     -0.95   
   167. D(C  14,C  13,C  12,C  10)    179.19 -0.000130    0.24    179.43   
   168. D(C  22,C  14,C  13,C  12)    -22.54 -0.001361    8.68    -13.86   
   169. D(C  22,C  14,C  13,H  36)    158.49 -0.001397    8.81    167.31   
   170. D(C  15,C  14,C  13,C  12)    157.38 -0.001356    8.36    165.73   
   171. D(C  15,C  14,C  13,H  36)    -21.59 -0.001392    8.49    -13.10   
   172. D(H  37,C  15,C  14,C  22)   -179.39 -0.000006   -0.02   -179.41   
   173. D(H  37,C  15,C  14,C  13)      0.69 -0.000009    0.30      0.99   
   174. D(C  16,C  15,C  14,C  22)      1.67  0.000058   -0.16      1.51   
   175. D(C  16,C  15,C  14,C  13)   -178.25  0.000055    0.16   -178.09   
   176. D(H  38,C  16,C  15,H  37)      0.24  0.000025   -0.03      0.22   
   177. D(H  38,C  16,C  15,C  14)    179.18 -0.000040    0.11    179.29   
   178. D(C  17,C  16,C  15,H  37)    179.86 -0.000013    0.04    179.90   
   179. D(C  17,C  16,C  15,C  14)     -1.20 -0.000078    0.18     -1.03   
   180. D(C  19,C  17,C  16,H  38)    179.68  0.000019   -0.07    179.60   
   181. D(C  19,C  17,C  16,C  15)      0.06  0.000056   -0.14     -0.08   
   182. D(O  18,C  17,C  16,H  38)      0.33  0.000051   -0.08      0.25   
   183. D(O  18,C  17,C  16,C  15)   -179.29  0.000088   -0.15   -179.44   
   184. D(H  39,O  18,C  17,C  19)   -179.29  0.000044   -0.14   -179.43   
   185. D(H  39,O  18,C  17,C  16)      0.08  0.000016   -0.14     -0.06   
   186. D(O  20,C  19,C  17,O  18)      0.54  0.000006    0.06      0.60   
   187. D(O  20,C  19,C  17,C  16)   -178.86  0.000016    0.05   -178.81   
   188. D(C  22,C  19,C  17,O  18)    179.97 -0.000018    0.10    180.07   
   189. D(C  22,C  19,C  17,C  16)      0.58 -0.000009    0.09      0.67   
   190. D(C  21,O  20,C  19,C  22)      0.15 -0.000009    0.04      0.19   
   191. D(C  21,O  20,C  19,C  17)    179.54 -0.000034    0.08    179.63   
   192. D(H  42,C  21,O  20,C  19)    -61.15  0.000005    0.09    -61.06   
   193. D(H  41,C  21,O  20,C  19)    179.96  0.000023   -0.11    179.86   
   194. D(H  40,C  21,O  20,C  19)     61.07  0.000034   -0.30     60.77   
   195. D(H  43,C  22,C  19,O  20)      0.65 -0.000049    0.10      0.75   
   196. D(H  43,C  22,C  19,C  17)   -178.72 -0.000021    0.06   -178.66   
   197. D(C  14,C  22,C  19,O  20)    179.29 -0.000039   -0.03    179.26   
   198. D(C  14,C  22,C  19,C  17)     -0.09 -0.000011   -0.07     -0.15   
   199. D(H  43,C  22,C  14,C  15)    177.62 -0.000005   -0.03    177.60   
   200. D(H  43,C  22,C  14,C  13)     -2.46  0.000001   -0.34     -2.80   
   201. D(C  19,C  22,C  14,C  15)     -1.03 -0.000022    0.10     -0.93   
   202. D(C  19,C  22,C  14,C  13)    178.89 -0.000016   -0.21    178.68   
   203. D(H  44,C  23,C   4,C   5)     -1.80  0.000019   -0.35     -2.14   
   204. D(H  44,C  23,C   4,C   3)    177.64 -0.000004    0.01    177.65   
   205. D(C  24,C  23,C   4,C   5)    179.66  0.000012   -0.26    179.40   
   206. D(C  24,C  23,C   4,C   3)     -0.91 -0.000011    0.10     -0.81   
   207. D(H  45,C  24,C  23,H  44)      0.72 -0.000018    0.06      0.77   
   208. D(H  45,C  24,C  23,C   4)    179.27 -0.000025   -0.03    179.23   
   209. D(C  25,C  24,C  23,H  44)   -178.68 -0.000019    0.07   -178.61   
   210. D(C  25,C  24,C  23,C   4)     -0.13 -0.000026   -0.03     -0.16   
   211. D(O  26,C  25,C  24,H  45)      0.63  0.000001    0.01      0.64   
   212. D(O  26,C  25,C  24,C  23)   -179.97  0.000003    0.00   -179.97   
   213. D(C   2,C  25,C  24,H  45)   -178.83  0.000018   -0.01   -178.84   
   214. D(C   2,C  25,C  24,C  23)      0.57  0.000020   -0.02      0.55   
   215. D(O  26,C  25,C   2,C   3)   -179.45  0.000018   -0.04   -179.48   
   216. D(O  26,C  25,C   2,O   1)      0.38  0.000008    0.02      0.40   
   217. D(C  24,C  25,C   2,C   3)      0.05  0.000020   -0.01      0.03   
   218. D(C  24,C  25,C   2,O   1)    179.87  0.000010    0.04    179.92   
   219. D(H  46,O  26,C  25,C  24)     -0.01 -0.000055    0.27      0.25   
   220. D(H  46,O  26,C  25,C   2)    179.46 -0.000069    0.29    179.74   
    ----------------------------------------------------------------------------

Geometry step timings:
Preparation and reading OPT file:      0.006 s (18.182 %)
Internal coordinates            :      0.000 s ( 0.000 %)
B/P matrices and projection     :      0.007 s (21.212 %)
Hessian update/contruction      :      0.003 s ( 9.091 %)
Making the step                 :      0.012 s (36.364 %)
Converting the step to Cartesian:      0.000 s ( 0.000 %)
Storing new data                :      0.001 s ( 3.030 %)
Checking convergence            :      0.000 s ( 0.000 %)
Final printing                  :      0.004 s (12.121 %)
Total time                      :      0.033 s

Time for energy+gradient        :    449.340 s
Time for complete geometry iter :    449.475 s

         *************************************************************
         *                GEOMETRY OPTIMIZATION CYCLE   5            *
         *************************************************************
---------------------------------
CARTESIAN COORDINATES (ANGSTROEM)
---------------------------------
  C     -1.025283   -7.711046    2.168935
  O     -0.359005   -7.857525    0.925021
  C      0.220644   -6.757215    0.374108
  C      0.226352   -5.483550    0.929729
  C      0.872716   -4.398985    0.291711
  C      0.864150   -3.094864    0.940951
  C      1.651494   -2.030493    0.665085
  C      1.508553   -0.767083    1.410468
  O      0.622828   -0.557462    2.231644
  C      2.482840    0.358664    1.017583
  C      1.982523    1.026481   -0.279569
  O      2.517144    0.773977   -1.352321
  C      0.813765    1.911277   -0.130557
  C      0.312202    2.590618   -1.187132
  C     -0.834198    3.487702   -1.205976
  C     -1.032318    4.332062   -2.305893
  C     -2.101617    5.228169   -2.328353
  C     -3.005700    5.289551   -1.272307
  O     -4.074241    6.129899   -1.234270
  C     -2.834541    4.423232   -0.156591
  O     -3.779307    4.536637    0.813933
  C     -3.672612    3.694896    1.952214
  C     -1.761515    3.543595   -0.136649
  C      1.493062   -4.625835   -0.945762
  C      1.481068   -5.897593   -1.515035
  C      0.861252   -6.969326   -0.875205
  O      0.817323   -8.231691   -1.380052
  H     -0.338882   -7.376304    2.959034
  H     -1.859060   -6.998507    2.101069
  H     -1.409767   -8.702527    2.413691
  H     -0.262157   -5.309132    1.882526
  H      0.154890   -2.956086    1.758049
  H      2.417726   -2.075968   -0.104735
  H      3.483086   -0.033365    0.816481
  H      2.496560    1.077136    1.841852
  H      0.377813    1.998893    0.861230
  H      0.845479    2.459297   -2.129392
  H     -0.338309    4.298305   -3.141071
  H     -2.245040    5.890983   -3.180877
  H     -4.082759    6.655860   -2.050319
  H     -2.733897    3.867314    2.496356
  H     -4.519653    3.955524    2.588746
  H     -3.729754    2.633079    1.676669
  H     -1.638015    2.866367    0.699955
  H      1.963166   -3.803780   -1.475534
  H      1.952878   -6.067933   -2.482118
  H      1.284019   -8.240059   -2.231326

----------------------------
CARTESIAN COORDINATES (A.U.)
----------------------------
  NO LB      ZA    FRAG     MASS         X           Y           Z
   0 C     6.0000    0    12.011   -1.937505  -14.571765    4.098693
   1 O     8.0000    0    15.999   -0.678421  -14.848571    1.748036
   2 C     6.0000    0    12.011    0.416957  -12.769286    0.706961
   3 C     6.0000    0    12.011    0.427744  -10.362408    1.756934
   4 C     6.0000    0    12.011    1.649193   -8.312878    0.551253
   5 C     6.0000    0    12.011    1.633007   -5.848445    1.778139
   6 C     6.0000    0    12.011    3.120871   -3.837075    1.256829
   7 C     6.0000    0    12.011    2.850752   -1.449577    2.665399
   8 O     8.0000    0    15.999    1.176974   -1.053450    4.217196
   9 C     6.0000    0    12.011    4.691887    0.677776    1.922954
  10 C     6.0000    0    12.011    3.746426    1.939767   -0.528309
  11 O     8.0000    0    15.999    4.756713    1.462605   -2.555517
  12 C     6.0000    0    12.011    1.537793    3.611789   -0.246716
  13 C     6.0000    0    12.011    0.589977    4.895559   -2.243354
  14 C     6.0000    0    12.011   -1.576405    6.590802   -2.278964
  15 C     6.0000    0    12.011   -1.950799    8.186411   -4.357506
  16 C     6.0000    0    12.011   -3.971481    9.879808   -4.399950
  17 C     6.0000    0    12.011   -5.679949    9.995802   -2.404312
  18 O     8.0000    0    15.999   -7.699199   11.583831   -2.332433
  19 C     6.0000    0    12.011   -5.356506    8.358698   -0.295914
  20 O     8.0000    0    15.999   -7.141855    8.573002    1.538111
  21 C     6.0000    0    12.011   -6.940231    6.982342    3.689149
  22 C     6.0000    0    12.011   -3.328780    6.696424   -0.258230
  23 C     6.0000    0    12.011    2.821478   -8.741561   -1.787230
  24 C     6.0000    0    12.011    2.798813  -11.144835   -2.863001
  25 C     6.0000    0    12.011    1.627530  -13.170118   -1.653898
  26 O     8.0000    0    15.999    1.544517  -15.555642   -2.607920
  27 H     1.0000    0     1.008   -0.640395  -13.939194    5.591763
  28 H     1.0000    0     1.008   -3.513115  -13.225262    3.970445
  29 H     1.0000    0     1.008   -2.664074  -16.445392    4.561215
  30 H     1.0000    0     1.008   -0.495406  -10.032805    3.557459
  31 H     1.0000    0     1.008    0.292699   -5.586193    3.322231
  32 H     1.0000    0     1.008    4.568840   -3.923011   -0.197921
  33 H     1.0000    0     1.008    6.582078   -0.063050    1.542926
  34 H     1.0000    0     1.008    4.717815    2.035493    3.480597
  35 H     1.0000    0     1.008    0.713963    3.777360    1.627488
  36 H     1.0000    0     1.008    1.597723    4.647399   -4.023968
  37 H     1.0000    0     1.008   -0.639311    8.122618   -5.935764
  38 H     1.0000    0     1.008   -4.242511   11.132344   -6.010987
  39 H     1.0000    0     1.008   -7.715297   12.577752   -3.874542
  40 H     1.0000    0     1.008   -5.166316    7.308165    4.717430
  41 H     1.0000    0     1.008   -8.540906    7.474856    4.892022
  42 H     1.0000    0     1.008   -7.048214    4.975799    3.168446
  43 H     1.0000    0     1.008   -3.095400    5.416650    1.322724
  44 H     1.0000    0     1.008    3.709846   -7.188103   -2.788355
  45 H     1.0000    0     1.008    3.690404  -11.466732   -4.690523
  46 H     1.0000    0     1.008    2.426444  -15.571456   -4.216595

--------------------------------
INTERNAL COORDINATES (ANGSTROEM)
--------------------------------
 C      0   0   0     0.000000000000     0.00000000     0.00000000
 O      1   0   0     1.418698357215     0.00000000     0.00000000
 C      2   1   0     1.360213557059   118.14702105     0.00000000
 C      3   2   1     1.389593518474   125.53811475     0.35560380
 C      4   3   2     1.414614569707   121.61865454   179.10447699
 C      5   4   3     1.456818298666   118.85792921   181.21377537
 C      6   5   4     1.352367250352   127.60523545   163.98293969
 C      7   6   5     1.473849396720   121.00003669   179.39297605
 O      8   7   6     1.225879028578   123.74051618   353.92321147
 C      8   7   6     1.539772548890   115.86884148   178.89466310
 C     10   8   7     1.542368423215   109.01995222    78.82214377
 O     11  10   8     1.224897878268   120.37878082   256.95388654
 C     11  10   8     1.473453231719   115.61055380    74.37982797
 C     13  11  10     1.352560887170   121.11423229   177.63190068
 C     14  13  11     1.455797767261   127.70726038   179.43065237
 C     15  14  13     1.400718815327   119.53816589   165.73486556
 C     16  15  14     1.395318292758   120.54199923   181.90209328
 C     17  16  15     1.391533603566   120.93134572   358.97194476
 O     18  17  16     1.359931333323   123.98496347   180.55943687
 C     18  17  16     1.422892942821   119.34484332   359.91728617
 O     20  18  17     1.359176672524   115.18162198   181.19331506
 C     21  20  18     1.419716313590   118.08599887   179.62527500
 C     20  18  17     1.387640078155   119.35609083     0.66676456
 C      5   4   3     1.402721619925   118.42232799     1.41127497
 C     24   5   4     1.393407227103   120.27917790   359.19354316
 C     25  24   5     1.393616401082   121.20818786   359.84319916
 O     26  25  24     1.360281616610   123.89298020   180.03363714
 H      1   2   3     1.098842467977   111.62509346   298.82912275
 H      1   2   3     1.098863821059   111.66288081    60.75525476
 H      1   2   3     1.091222929000   105.56458158   179.80477034
 H      4   3   2     1.084843669834   119.78129531   359.97199620
 H      6   5   4     1.090852234708   116.84155204   345.13486101
 H      7   6   5     1.087107700301   121.45847030   358.77960172
 H     10   8   7     1.092986686971   111.33205883   320.63498685
 H     10   8   7     1.093531241130   107.21540813   198.70869904
 H     13  11  10     1.086908841489   117.31216039   357.99321552
 H     14  13  11     1.090634643801   115.66438392   358.27286308
 H     16  15  14     1.086421603874   119.64154197     0.98114198
 H     17  16  15     1.089352639054   120.28179058   179.29071359
 H     19  18  17     0.970897808493   108.55024369   359.94377873
 H     22  21  20     1.098638107092   111.60898234    60.76936076
 H     22  21  20     1.091136163117   105.53134862   179.85741602
 H     22  21  20     1.098473834912   111.59735178   298.93686014
 H     23  20  18     1.083419069822   119.70201116   181.33220156
 H     24   5   4     1.085094798621   119.98607898   177.64834691
 H     25  24   5     1.089435577718   120.10874396   179.23203860
 H     27  26  25     0.970846140920   108.53591191     0.25022996

---------------------------
INTERNAL COORDINATES (A.U.)
---------------------------
 C      0   0   0     0.000000000000     0.00000000     0.00000000
 O      1   0   0     2.680951361781     0.00000000     0.00000000
 C      2   1   0     2.570431106488   118.14702105     0.00000000
 C      3   2   1     2.625951187388   125.53811475     0.35560380
 C      4   3   2     2.673234121801   121.61865454   179.10447699
 C      5   4   3     2.752987611364   118.85792921   181.21377537
 C      6   5   4     2.555603735650   127.60523545   163.98293969
 C      7   6   5     2.785171722445   121.00003669   179.39297605
 O      8   7   6     2.316575637330   123.74051618   353.92321147
 C      8   7   6     2.909748425933   115.86884148   178.89466310
 C     10   8   7     2.914653917484   109.01995222    78.82214377
 O     11  10   8     2.314721531948   120.37878082   256.95388654
 C     11  10   8     2.784423079090   115.61055380    74.37982797
 C     13  11  10     2.555969656206   121.11423229   177.63190068
 C     14  13  11     2.751059086497   127.70726038   179.43065237
 C     15  14  13     2.646974951600   119.53816589   165.73486556
 C     16  15  14     2.636769442964   120.54199923   181.90209328
 C     17  16  15     2.629617416888   120.93134572   358.97194476
 O     18  17  16     2.569897780919   123.98496347   180.55943687
 C     18  17  16     2.688877979821   119.34484332   359.91728617
 O     20  18  17     2.568471678684   115.18162198   181.19331506
 C     21  20  18     2.682875020546   118.08599887   179.62527500
 C     20  18  17     2.622259720165   119.35609083     0.66676456
 C      5   4   3     2.650759703789   118.42232799     1.41127497
 C     24   5   4     2.633158052251   120.27917790   359.19354316
 C     25  24   5     2.633553333785   121.20818786   359.84319916
 O     26  25  24     2.570559720401   123.89298020   180.03363714
 H      1   2   3     2.076511328799   111.62509346   298.82912275
 H      1   2   3     2.076551680276   111.66288081    60.75525476
 H      1   2   3     2.062112486866   105.56458158   179.80477034
 H      4   3   2     2.050057434105   119.78129531   359.97199620
 H      6   5   4     2.061411976174   116.84155204   345.13486101
 H      7   6   5     2.054335831646   121.45847030   358.77960172
 H     10   8   7     2.065445506398   111.33205883   320.63498685
 H     10   8   7     2.066474564622   107.21540813   198.70869904
 H     13  11  10     2.053960042952   117.31216039   357.99321552
 H     14  13  11     2.061000788951   115.66438392   358.27286308
 H     16  15  14     2.053039297298   119.64154197     0.98114198
 H     17  16  15     2.058578151076   120.28179058   179.29071359
 H     19  18  17     1.834730962077   108.55024369   359.94377873
 H     22  21  20     2.076125142694   111.60898234    60.76936076
 H     22  21  20     2.061948523109   105.53134862   179.85741602
 H     22  21  20     2.075814713262   111.59735178   298.93686014
 H     23  20  18     2.047365330232   119.70201116   181.33220156
 H     24   5   4     2.050531998737   119.98607898   177.64834691
 H     25  24   5     2.058734882437   120.10874396   179.23203860
 H     27  26  25     1.834633324513   108.53591191     0.25022996

------------------------------------------------------------------------------
                   ___                                                        
                  /   \      - P O W E R E D   B Y -                         
                 /     \                                                     
                 |  |  |   _    _      __       _____    __    __             
                 |  |  |  | |  | |    /  \     |  _  \  |  |  /  |          
                  \  \/   | |  | |   /    \    | | | |  |  | /  /          
                 / \  \   | |__| |  /  /\  \   | |_| |  |  |/  /          
                |  |  |   |  __  | /  /__\  \  |    /   |      \           
                |  |  |   | |  | | |   __   |  |    \   |  |\   \          
                \     /   | |  | | |  |  |  |  | |\  \  |  | \   \       
                 \___/    |_|  |_| |__|  |__|  |_| \__\ |__|  \__/        
                                                                              
                      - O R C A' S   B I G   F R I E N D -                    
                                      &                                       
                       - I N T E G R A L  F E E D E R -                       
                                                                              
 v1 FN, 2020, v2 2021, v3 2022-2024                                           
------------------------------------------------------------------------------


----------------------
SHARK INTEGRAL PACKAGE
----------------------

Number of atoms                             ...     47
Number of basis functions                   ...    418
Number of shells                            ...    202
Maximum angular momentum                    ...      2
Integral batch strategy                     ... SHARK/LIBINT Hybrid
RI-J (if used) integral strategy            ... SPLIT-RIJ (Revised 2003 algorithm where possible)
Printlevel                                  ...      1
Contraction scheme used                     ... SEGMENTED contraction
Prescreening option                         ... SCHWARTZ
   Thresh                                   ... 2.500e-11
   Tcut                                     ... 2.500e-12
   Tpresel                                  ... 2.500e-12 
Coulomb Range Separation                    ... NOT USED
Exchange Range Separation                   ... NOT USED
Multipole approximations                    ... NOT USED
Finite Nucleus Model                        ... NOT USED
CABS basis                                  ... NOT available
Auxiliary Coulomb fitting basis             ... AVAILABLE
   # of basis functions in Aux-J            ...   1543
   # of shells in Aux-J                     ...    505
   Maximum angular momentum in Aux-J        ...      4
Auxiliary J/K fitting basis                 ... NOT available
Auxiliary Correlation fitting basis         ... NOT available
Auxiliary 'external' fitting basis          ... NOT available

Checking pre-screening integrals            ... done (  0.0 sec) Dimension = 202
   => SHARK Basis and OBASIS are compatible. Storing Pre-screening
Shell pair information
Shell pair cut-off parameter TPreSel        ...   2.5e-12
Total number of shell pairs                 ...     20503
Shell pairs after pre-screening             ...     10450
Total number of primitive shell pairs       ...    118482
Primitive shell pairs kept                  ...     33463
          la=0 lb=0:   3567 shell pairs
          la=1 lb=0:   3612 shell pairs
          la=1 lb=1:    919 shell pairs
          la=2 lb=0:   1437 shell pairs
          la=2 lb=1:    759 shell pairs
          la=2 lb=2:    156 shell pairs

Checking whether 4 symmetric matrices of dimension 418 fit in memory
:Max Core in MB      =   4096.00
 MB in use           =     16.50
 MB left             =   4079.50
 MB needed           =      2.67
 Data fit in memory  = YES
Calculating RI/J V-Matrix + Cholesky decomp.... done (  0.4 sec)
Calculating Nuclear repulsion               ... done (  0.0 sec) ENN=   2150.974542691235 Eh

Diagonalization of the overlap matrix:
Smallest eigenvalue                        ... 4.164e-04
Time for diagonalization                   ...    0.029 sec
Threshold for overlap eigenvalues          ... 1.000e-07
Number of eigenvalues below threshold      ... 0
Time for construction of square roots      ...    0.015 sec
Total time needed                          ...    0.047 sec

-------------------
DFT GRID GENERATION
-------------------

General Integration Accuracy     IntAcc      ... 4.388
Radial Grid Type                 RadialGrid  ... OptM3 with GC (2021)
Angular Grid (max. ang.)         AngularGrid ... 4 (Lebedev-302)
Angular grid pruning method      GridPruning ... 4 (adaptive)
Weight generation scheme         WeightScheme... mBecke (2022)
Basis function cutoff            BFCut       ... 1.0000e-11
Integration weight cutoff        WCut        ... 1.0000e-14
Partially contracted basis set               ... off
Rotationally invariant grid construction     ... off
Angular grids for H and He will be reduced by one unit

Total number of grid points                  ...   226246
Total number of batches                      ...     3559
Average number of points per batch           ...       63
Average number of grid points per atom       ...     4814

--------------------
COSX GRID GENERATION
--------------------

GRIDX 1
-------
General Integration Accuracy     IntAcc      ... 3.816
Radial Grid Type                 RadialGrid  ... OptM3 with GC (2021)
Angular Grid (max. ang.)         AngularGrid ... 1 (Lebedev-50)
Angular grid pruning method      GridPruning ... 4 (adaptive)
Weight generation scheme         WeightScheme... mBecke (2022)
Basis function cutoff            BFCut       ... 1.0000e-11
Integration weight cutoff        WCut        ... 1.0000e-14
Partially contracted basis set               ... on
Rotationally invariant grid construction     ... off
Angular grids for H and He will be reduced by one unit

Total number of grid points                  ...    28713
Total number of batches                      ...      251
Average number of points per batch           ...      114
Average number of grid points per atom       ...      611
UseSFitting                                  ... on

GRIDX 2
-------
General Integration Accuracy     IntAcc      ... 4.020
Radial Grid Type                 RadialGrid  ... OptM3 with GC (2021)
Angular Grid (max. ang.)         AngularGrid ... 2 (Lebedev-110)
Angular grid pruning method      GridPruning ... 4 (adaptive)
Weight generation scheme         WeightScheme... mBecke (2022)
Basis function cutoff            BFCut       ... 1.0000e-11
Integration weight cutoff        WCut        ... 1.0000e-14
Partially contracted basis set               ... on
Rotationally invariant grid construction     ... off
Angular grids for H and He will be reduced by one unit

Total number of grid points                  ...    62764
Total number of batches                      ...      517
Average number of points per batch           ...      121
Average number of grid points per atom       ...     1335
UseSFitting                                  ... on

GRIDX 3
-------
General Integration Accuracy     IntAcc      ... 4.338
Radial Grid Type                 RadialGrid  ... OptM3 with GC (2021)
Angular Grid (max. ang.)         AngularGrid ... 3 (Lebedev-194)
Angular grid pruning method      GridPruning ... 4 (adaptive)
Weight generation scheme         WeightScheme... mBecke (2022)
Basis function cutoff            BFCut       ... 1.0000e-11
Integration weight cutoff        WCut        ... 1.0000e-14
Partially contracted basis set               ... on
Rotationally invariant grid construction     ... off
Angular grids for H and He will be reduced by one unit

Total number of grid points                  ...   137499
Total number of batches                      ...     1097
Average number of points per batch           ...      125
Average number of grid points per atom       ...     2926
UseSFitting                                  ... on
Grids setup in   8.4 sec
Initializing property integral containers    ... done (  0.0 sec)

SHARK setup successfully completed in   9.3 seconds

Maximum memory used throughout the entire STARTUP-calculation: 91.5 MB
Occupation numbers will be reassigned to an Aufbau configuration
             **** ENERGY FILE WAS UPDATED (curcumin.en.tmp) ****
Finished Guess after   0.2 sec
Maximum memory used throughout the entire GUESS-calculation: 30.3 MB
----------------------------------------D-I-I-S--------------------------------------------
Iteration    Energy (Eh)           Delta-E    RMSDP     MaxDP     DIISErr   Damp  Time(sec)
-------------------------------------------------------------------------------------------
               ***  Starting incremental Fock matrix formation  ***
    1    -1262.7114101757470053     0.00e+00  3.91e-04  1.35e-02  5.89e-02  0.700  34.4
    2    -1262.7365206934737216    -2.51e-02  3.76e-04  1.30e-02  4.71e-02  0.700  14.5
                               ***Turning on AO-DIIS***
    3    -1262.7567555478731265    -2.02e-02  3.25e-04  1.10e-02  3.57e-02  0.700  14.4
    4    -1262.7718463323053584    -1.51e-02  8.47e-04  2.80e-02  2.61e-02  0.000  14.1
                              *** Initializing SOSCF ***
---------------------------------------S-O-S-C-F--------------------------------------
Iteration    Energy (Eh)           Delta-E    RMSDP     MaxDP     MaxGrad    Time(sec)
--------------------------------------------------------------------------------------
    5    -1262.8100221347763181    -3.82e-02  5.85e-05  1.25e-03  1.48e-03    15.2
               *** Restarting incremental Fock matrix formation ***
    6    -1262.8101027387892827    -8.06e-05  4.14e-05  1.01e-03  3.62e-04    34.2
    7    -1262.8101222609147953    -1.95e-05  2.59e-05  1.02e-03  1.51e-04    22.0
    8    -1262.8101199365501088     2.32e-06  1.57e-05  5.65e-04  2.10e-04    20.5
    9    -1262.8101250554973376    -5.12e-06  4.85e-06  1.91e-04  3.99e-05    19.3
   10    -1262.8101248146276703     2.41e-07  3.20e-06  1.13e-04  6.71e-05    15.5
   11    -1262.8101251679736379    -3.53e-07  5.61e-07  2.28e-05  3.75e-06    14.6
   12    -1262.8101251666607823     1.31e-09  3.17e-07  1.43e-05  4.77e-06    11.2
                 **** Energy Check signals convergence ****

               *****************************************************
               *                     SUCCESS                       *
               *           SCF CONVERGED AFTER  12 CYCLES          *
               *****************************************************

Recomputing exchange energy using gridx3       ... done (   57.782 sec)
Old exchange energy                            :    -33.082712011 Eh
New exchange energy                            :    -33.082811404 Eh
Exchange energy change after final integration :     -0.000099393 Eh
Total energy after final integration           :  -1262.810224574 Eh
             **** ENERGY FILE WAS UPDATED (curcumin.en.tmp) ****

----------------
TOTAL SCF ENERGY
----------------

Total Energy       :      -1262.81022457376662 Eh          -34362.81318 eV

Components:
Nuclear Repulsion  :       2150.97454269123500 Eh           58530.99296 eV
Electronic Energy  :      -3413.78466787156458 Eh          -92893.80344 eV
One Electron Energy:      -5995.37172248415936 Eh         -163142.35857 eV
Two Electron Energy:       2581.58705461259478 Eh           70248.55512 eV

Virial components:
Potential Energy   :      -2518.25320909251377 Eh          -68525.15357 eV
Kinetic Energy     :       1255.44298451874715 Eh           34162.34039 eV
Virial Ratio       :          2.00586823945481

DFT components:
N(Alpha)           :       96.999968502768 electrons
N(Beta)            :       96.999968502768 electrons
N(Total)           :      193.999937005535 electrons
E(X)               :     -131.493038598103 Eh       
E(C)               :       -7.826497959410 Eh       
E(XC)              :     -139.319536557513 Eh       

---------------
SCF CONVERGENCE
---------------

  Last Energy change         ...   -1.3129e-09  Tolerance :   1.0000e-08
  Last MAX-Density change    ...    1.4318e-05  Tolerance :   1.0000e-07
  Last RMS-Density change    ...    3.1726e-07  Tolerance :   5.0000e-09
  Last DIIS Error            ...    1.4811e-03  Tolerance :   5.0000e-07
  Last Orbital Gradient      ...    4.7693e-06  Tolerance :   1.0000e-05
  Last Orbital Rotation      ...    1.2274e-05  Tolerance :   1.0000e-05


Total SCF time: 0 days 0 hours 4 min 58 sec 
Finished LeanSCF after 298.4 sec

Maximum memory used throughout the entire LEANSCF-calculation: 59.4 MB

-------------------------   --------------------
FINAL SINGLE POINT ENERGY     -1262.810224573767
-------------------------   --------------------

------------------------------------------------------------------------------
                         ORCA SCF GRADIENT CALCULATION
------------------------------------------------------------------------------

Nuc. rep. gradient        (SHARK) ... done (  0.0 sec)
HCore & Overlap gradient  (SHARK) ... done (  2.1 sec)
Split-RIJ-J gradient      (SHARK) ... done ( 10.5 sec)
COSX-gradient                     ... done (114.0 sec)
XC gradient                       ... done ( 24.3 sec)

------------------
CARTESIAN GRADIENT
------------------

   1   C   :   -0.000363251   -0.000912035    0.000193693
   2   O   :    0.000522958    0.000356654   -0.000286782
   3   C   :   -0.001148915    0.000756130    0.002271219
   4   C   :    0.000192342   -0.000860143   -0.000193671
   5   C   :    0.000359191    0.000256397    0.000201096
   6   C   :   -0.000096233   -0.001863244   -0.001467281
   7   C   :   -0.000530495    0.002954258    0.000096857
   8   C   :    0.001392557   -0.004721058    0.005551317
   9   O   :   -0.000841390    0.001378136   -0.002619665
  10   C   :    0.002042306    0.001538147    0.000831985
  11   C   :    0.000417582    0.002989424   -0.002595295
  12   O   :   -0.000714073   -0.001187066    0.000496961
  13   C   :    0.002134999   -0.001764462    0.000354116
  14   C   :   -0.002130314    0.001079986    0.000604869
  15   C   :    0.000624883    0.000281559   -0.001419810
  16   C   :   -0.000201180    0.000399617   -0.000115366
  17   C   :    0.001122483   -0.001670206    0.001753285
  18   C   :   -0.000661838    0.002950644   -0.003444500
  19   O   :   -0.000239238   -0.000720722    0.001206370
  20   C   :    0.000256744   -0.000839214    0.001496937
  21   O   :    0.000289842   -0.000113861   -0.000510235
  22   C   :   -0.000767498    0.000181605    0.000644742
  23   C   :   -0.000717432   -0.000138341    0.000494060
  24   C   :    0.000176901    0.000456952   -0.000709342
  25   C   :   -0.000980881    0.000250486    0.002267544
  26   C   :    0.002558944   -0.000643528   -0.004828333
  27   O   :   -0.000828131   -0.000265288    0.001307276
  28   H   :   -0.000257934    0.000640254    0.000080439
  29   H   :    0.000232644    0.000550951    0.000462969
  30   H   :    0.000305437   -0.000145514   -0.000598884
  31   H   :   -0.000159301   -0.000243229    0.000059255
  32   H   :   -0.000117147    0.001082237   -0.000049028
  33   H   :   -0.000093797   -0.001075650   -0.000206796
  34   H   :   -0.000547464   -0.000176671   -0.001032827
  35   H   :   -0.001187068   -0.000506614    0.000121437
  36   H   :   -0.000655243    0.001008370   -0.000233716
  37   H   :    0.000490538   -0.000921282    0.000230016
  38   H   :    0.000053334   -0.000194224    0.000090084
  39   H   :   -0.000510627    0.000412406    0.000155863
  40   H   :    0.000113485   -0.000001187   -0.000152370
  41   H   :    0.000355424   -0.000638051   -0.000162635
  42   H   :   -0.000128411    0.000441710   -0.000543229
  43   H   :    0.000719587   -0.000136512    0.000116269
  44   H   :    0.000043260   -0.000365405   -0.000125605
  45   H   :   -0.000418795    0.000516901    0.000463023
  46   H   :   -0.000177316   -0.000570249   -0.000186844
  47   H   :    0.000068533    0.000190932   -0.000069471

Difference to translation invariance:
           :   -0.0000000001   -0.0000000001   -0.0000000000

Difference to rotation invariance:
           :    0.0002153212    0.0002262181    0.0002376777

Norm of the Cartesian gradient     ...    0.0147882740
RMS gradient                       ...    0.0012453973
MAX gradient                       ...    0.0055513171

-------
TIMINGS
-------

Total SCF gradient time     ....      150.940 sec

Densities                   ....       0.006 sec  (  0.0%)
One electron gradient       ....       2.135 sec  (  1.4%)
RI-J Coulomb gradient       ....      10.517 sec  (  7.0%)
COSX gradient               ....     114.005 sec  ( 75.5%)
XC gradient                 ....      24.276 sec  ( 16.1%)

Maximum memory used throughout the entire SCFGRAD-calculation: 66.9 MB
------------------------------------------------------------------------------
                         ORCA GEOMETRY RELAXATION STEP
------------------------------------------------------------------------------

Reading the OPT-File                    .... done
Getting information on internals        .... done
Copying old internal coords+grads       .... done
Making the new internal coordinates     .... (2022 redundants) done
Validating the new internal coordinates .... (2022 redundants) done
Calculating the B-matrix                .... done
Calculating the G,G- and P matrices     .... done
Transforming gradient to internals      .... done
Projecting the internal gradient        .... done
Number of atoms                         ....  47
Number of internal coordinates          .... 220
Current Energy                          .... -1262.810224574 Eh
Current gradient norm                   ....     0.014788274 Eh/bohr
Maximum allowed component of the step   ....  0.300
Current trust radius                    ....  0.675
Updating the Hessian (BFGS)             .... done
Forming the augmented Hessian           .... done
Diagonalizing the augmented Hessian     .... done
Last element of RFO vector              ....  0.919441639
Lowest eigenvalues of augmented Hessian:
 -0.001537357  0.005102677  0.012683520  0.012777138  0.012791558
Length of the computed step             ....  0.427679663
The final length of the internal step   ....  0.427679663
Converting the step to Cartesian space:
 Initial RMS(Int)=    0.0288341570
Transforming coordinates:
 Iter   0:  RMS(Cart)=    0.2035347221 RMS(Int)=    0.4244960587
 Iter   5:  RMS(Cart)=    0.0000009938 RMS(Int)=    0.0000003016
done
Storing new coordinates                 .... done
The predicted energy change is          ....    -0.000909278
Previously predicted energy change      ....    -0.001432332
Actually observed energy change         ....    -0.001208510
Ratio of predicted to observed change   ....     0.843735792
New trust radius                        ....     0.700000000

                                .--------------------.
          ----------------------|Geometry convergence|-------------------------
          Item                value                   Tolerance       Converged
          ---------------------------------------------------------------------
          Energy change      -0.0012085101            0.0000050000      NO
          RMS gradient        0.0006340649            0.0001000000      NO
          MAX gradient        0.0020622384            0.0003000000      NO
          RMS step            0.0288341570            0.0020000000      NO
          MAX step            0.1420038808            0.0040000000      NO
          -------------------------------------------------------------------------
          ........................................................
          Max(Bonds)      0.0032      Max(Angles)    0.71
          Max(Dihed)        8.14      Max(Improp)    0.00
          ---------------------------------------------------------------------

The optimization has not yet converged - more geometry cycles are needed


    ---------------------------------------------------------------------------
                         Redundant Internal Coordinates
                            (Angstroem and degrees)

        Definition                    Value    dE/dq     Step     New-Value
    ----------------------------------------------------------------------------
     1. B(O   1,C   0)                1.4187  0.000176  0.0002    1.4189   
     2. B(C   2,O   1)                1.3602 -0.000642  0.0007    1.3609   
     3. B(C   3,C   2)                1.3896 -0.000799  0.0005    1.3901   
     4. B(C   4,C   3)                1.4146  0.000286  0.0002    1.4149   
     5. B(C   5,C   4)                1.4568 -0.000495 -0.0024    1.4544   
     6. B(C   6,C   5)                1.3524  0.000213  0.0006    1.3530   
     7. B(C   7,C   6)                1.4738 -0.000703 -0.0002    1.4736   
     8. B(O   8,C   7)                1.2259 -0.000911  0.0013    1.2272   
     9. B(C   9,C   7)                1.5398  0.001979 -0.0032    1.5366   
    10. B(C  10,C   9)                1.5424  0.001893 -0.0026    1.5398   
    11. B(O  11,C  10)                1.2249 -0.000503  0.0012    1.2261   
    12. B(C  12,C  10)                1.4735 -0.000566 -0.0003    1.4731   
    13. B(C  13,C  12)                1.3526  0.000241  0.0006    1.3531   
    14. B(C  14,C  13)                1.4558 -0.000369 -0.0028    1.4530   
    15. B(C  15,C  14)                1.4007 -0.000308  0.0000    1.4008   
    16. B(C  16,C  15)                1.3953 -0.000019  0.0001    1.3955   
    17. B(C  17,C  16)                1.3915 -0.000547 -0.0005    1.3911   
    18. B(O  18,C  17)                1.3599 -0.000319 -0.0004    1.3595   
    19. B(C  19,C  17)                1.4229  0.001464 -0.0001    1.4228   
    20. B(O  20,C  19)                1.3592 -0.000676  0.0007    1.3599   
    21. B(C  21,O  20)                1.4197  0.000143  0.0002    1.4199   
    22. B(C  22,C  19)                1.3876 -0.000501 -0.0006    1.3870   
    23. B(C  22,C  14)                1.4165  0.000301  0.0013    1.4178   
    24. B(C  23,C   4)                1.4027 -0.000323  0.0010    1.4038   
    25. B(C  24,C  23)                1.3934  0.000359 -0.0010    1.3924   
    26. B(C  25,C  24)                1.3936 -0.001080  0.0008    1.3945   
    27. B(C  25,C   2)                1.4199  0.002052 -0.0017    1.4182   
    28. B(O  26,C  25)                1.3603 -0.000366 -0.0002    1.3601   
    29. B(H  27,C   0)                1.0988  0.000091 -0.0002    1.0986   
    30. B(H  28,C   0)                1.0989  0.000153 -0.0003    1.0985   
    31. B(H  29,C   0)                1.0912 -0.000109  0.0001    1.0913   
    32. B(H  30,C   3)                1.0848  0.000085 -0.0001    1.0848   
    33. B(H  31,C   5)                1.0909  0.000178 -0.0001    1.0907   
    34. B(H  32,C   6)                1.0871  0.000125 -0.0003    1.0868   
    35. B(H  33,C   9)                1.0930 -0.000248  0.0001    1.0931   
    36. B(H  34,C   9)                1.0935 -0.000256  0.0001    1.0936   
    37. B(H  35,C  12)                1.0869  0.000131 -0.0003    1.0866   
    38. B(H  36,C  13)                1.0906  0.000152 -0.0000    1.0906   
    39. B(H  37,C  15)                1.0864 -0.000028  0.0001    1.0865   
    40. B(H  38,C  16)                1.0894  0.000197 -0.0004    1.0890   
    41. B(H  39,O  18)                0.9709  0.000128 -0.0003    0.9706   
    42. B(H  40,C  21)                1.0986  0.000122 -0.0003    1.0984   
    43. B(H  41,C  21)                1.0911 -0.000112  0.0000    1.0912   
    44. B(H  42,C  21)                1.0985  0.000065 -0.0002    1.0983   
    45. B(H  43,C  22)                1.0834  0.000136 -0.0003    1.0831   
    46. B(H  44,C  23)                1.0851 -0.000016 -0.0000    1.0851   
    47. B(H  45,C  24)                1.0894  0.000178 -0.0003    1.0891   
    48. B(H  46,O  26)                0.9708  0.000092 -0.0002    0.9706   
    49. A(O   1,C   0,H  28)          111.66  0.000447   -0.08    111.58   
    50. A(H  27,C   0,H  28)          108.71 -0.000789    0.12    108.83   
    51. A(H  28,C   0,H  29)          109.61  0.000489   -0.09    109.53   
    52. A(H  27,C   0,H  29)          109.61  0.000499   -0.07    109.54   
    53. A(O   1,C   0,H  29)          105.56 -0.000899    0.21    105.77   
    54. A(O   1,C   0,H  27)          111.63  0.000290   -0.08    111.54   
    55. A(C   0,O   1,C   2)          118.15  0.000788   -0.10    118.05   
    56. A(O   1,C   2,C   3)          125.54  0.000175   -0.01    125.52   
    57. A(O   1,C   2,C  25)          115.33 -0.000552    0.09    115.42   
    58. A(C   3,C   2,C  25)          119.14  0.000377   -0.08    119.06   
    59. A(C   4,C   3,H  30)          118.59  0.000382   -0.09    118.50   
    60. A(C   2,C   3,H  30)          119.78 -0.000191    0.03    119.81   
    61. A(C   2,C   3,C   4)          121.62 -0.000192    0.07    121.69   
    62. A(C   3,C   4,C  23)          118.42  0.000154   -0.10    118.32   
    63. A(C   3,C   4,C   5)          118.86  0.001058   -0.37    118.49   
    64. A(C   5,C   4,C  23)          122.72 -0.001212    0.46    123.18   
    65. A(C   4,C   5,H  31)          116.84  0.001344   -0.31    116.53   
    66. A(C   4,C   5,C   6)          127.61 -0.000678    0.68    128.29   
    67. A(C   6,C   5,H  31)          115.54 -0.000669   -0.37    115.18   
    68. A(C   5,C   6,H  32)          121.46 -0.001554    0.41    121.87   
    69. A(C   7,C   6,H  32)          117.54  0.000674   -0.17    117.36   
    70. A(C   5,C   6,C   7)          121.00  0.000880   -0.24    120.76   
    71. A(O   8,C   7,C   9)          120.20 -0.000501    0.03    120.24   
    72. A(C   6,C   7,C   9)          115.87 -0.000732    0.13    116.00   
    73. A(C   6,C   7,O   8)          123.74  0.001055   -0.09    123.65   
    74. A(H  33,C   9,H  34)          111.28  0.000581    0.07    111.34   
    75. A(C   7,C   9,H  34)          107.22 -0.000715   -0.00    107.21   
    76. A(C   7,C   9,C  10)          109.02 -0.000061    0.04    109.06   
    77. A(C  10,C   9,H  34)          110.70  0.000625   -0.08    110.63   
    78. A(C   7,C   9,H  33)          111.33 -0.000023    0.01    111.34   
    79. A(C  10,C   9,H  33)          107.30 -0.000394   -0.07    107.23   
    80. A(O  11,C  10,C  12)          123.96  0.000905   -0.06    123.90   
    81. A(C   9,C  10,C  12)          115.61 -0.000681    0.11    115.72   
    82. A(C   9,C  10,O  11)          120.38 -0.000253   -0.00    120.38   
    83. A(C  10,C  12,H  35)          117.31  0.000780   -0.22    117.09   
    84. A(C  13,C  12,H  35)          121.57 -0.001631    0.46    122.03   
    85. A(C  10,C  12,C  13)          121.11  0.000851   -0.23    120.88   
    86. A(C  14,C  13,H  36)          116.62  0.001271   -0.34    116.28   
    87. A(C  12,C  13,H  36)          115.66 -0.000791   -0.36    115.31   
    88. A(C  12,C  13,C  14)          127.71 -0.000482    0.71    128.41   
    89. A(C  15,C  14,C  22)          118.45  0.000099   -0.09    118.36   
    90. A(C  13,C  14,C  22)          122.01 -0.001590    0.56    122.57   
    91. A(C  13,C  14,C  15)          119.54  0.001490   -0.48    119.06   
    92. A(C  16,C  15,H  37)          119.81  0.000377   -0.07    119.74   
    93. A(C  14,C  15,H  37)          119.64 -0.000051   -0.08    119.56   
    94. A(C  14,C  15,C  16)          120.54 -0.000328    0.16    120.70   
    95. A(C  17,C  16,H  38)          118.79 -0.001115    0.10    118.88   
    96. A(C  15,C  16,H  38)          120.28  0.000204    0.08    120.36   
    97. A(C  15,C  16,C  17)          120.93  0.000911   -0.17    120.76   
    98. A(O  18,C  17,C  19)          116.67 -0.001012    0.20    116.87   
    99. A(C  16,C  17,C  19)          119.34 -0.000889    0.14    119.49   
   100. A(C  16,C  17,O  18)          123.98  0.001901   -0.34    123.64   
   101. A(C  17,O  18,H  39)          108.55 -0.000263    0.23    108.78   
   102. A(O  20,C  19,C  22)          125.46 -0.000053    0.04    125.50   
   103. A(C  17,C  19,C  22)          119.36  0.000175   -0.02    119.33   
   104. A(C  17,C  19,O  20)          115.18 -0.000122   -0.01    115.17   
   105. A(C  19,O  20,C  21)          118.09  0.000476   -0.08    118.01   
   106. A(H  41,C  21,H  42)          109.68  0.000553   -0.08    109.61   
   107. A(H  40,C  21,H  42)          108.69 -0.000778    0.13    108.81   
   108. A(H  40,C  21,H  41)          109.69  0.000557   -0.08    109.61   
   109. A(O  20,C  21,H  41)          105.53 -0.000891    0.21    105.74   
   110. A(O  20,C  21,H  40)          111.61  0.000331   -0.10    111.51   
   111. A(O  20,C  21,H  42)          111.60  0.000271   -0.08    111.52   
   112. A(C  14,C  22,C  19)          121.36  0.000030   -0.00    121.35   
   113. A(C  19,C  22,H  43)          119.70  0.000221   -0.13    119.57   
   114. A(C  14,C  22,H  43)          118.92 -0.000253    0.13    119.06   
   115. A(C   4,C  23,C  24)          120.28 -0.000143    0.08    120.36   
   116. A(C  24,C  23,H  44)          119.72  0.000861   -0.22    119.50   
   117. A(C   4,C  23,H  44)          119.99 -0.000721    0.14    120.13   
   118. A(C  25,C  24,H  45)          118.68 -0.000937    0.04    118.72   
   119. A(C  23,C  24,H  45)          120.11  0.000276    0.06    120.17   
   120. A(C  23,C  24,C  25)          121.21  0.000660   -0.10    121.11   
   121. A(C  24,C  25,O  26)          123.89  0.002062   -0.41    123.49   
   122. A(C   2,C  25,O  26)          116.78 -0.001204    0.27    117.06   
   123. A(C   2,C  25,C  24)          119.32 -0.000859    0.13    119.46   
   124. A(C  25,O  26,H  46)          108.54 -0.000354    0.24    108.78   
   125. D(C   2,O   1,C   0,H  27)    -61.17  0.000221    0.14    -61.03   
   126. D(C   2,O   1,C   0,H  28)     60.76 -0.000271    0.17     60.93   
   127. D(C   2,O   1,C   0,H  29)    179.80  0.000011    0.15    179.95   
   128. D(C   3,C   2,O   1,C   0)      0.36 -0.000008   -0.15      0.21   
   129. D(C  25,C   2,O   1,C   0)   -179.52 -0.000054   -0.05   -179.57   
   130. D(H  30,C   3,C   2,C  25)    179.84 -0.000005    0.02    179.86   
   131. D(C   4,C   3,C   2,C  25)     -1.03 -0.000122    0.38     -0.65   
   132. D(H  30,C   3,C   2,O   1)     -0.03 -0.000052    0.12      0.09   
   133. D(C   4,C   3,C   2,O   1)    179.10 -0.000169    0.48    179.58   
   134. D(C  23,C   4,C   3,C   2)      1.41  0.000122   -0.39      1.02   
   135. D(C  23,C   4,C   3,H  30)   -179.45  0.000002   -0.03   -179.48   
   136. D(C   5,C   4,C   3,H  30)      0.36  0.000037    0.06      0.41   
   137. D(C   5,C   4,C   3,C   2)   -178.79  0.000157   -0.30   -179.09   
   138. D(C   6,C   5,C   4,C   3)    163.98 -0.000850    7.75    171.73   
   139. D(C   6,C   5,C   4,C  23)    -16.22 -0.000811    7.84     -8.39   
   140. D(H  31,C   5,C   4,C   3)    -14.87 -0.000667    7.55     -7.31   
   141. D(H  31,C   5,C   4,C  23)    164.93 -0.000627    7.64    172.57   
   142. D(H  32,C   6,C   5,C   4)     -1.22 -0.000105    0.27     -0.95   
   143. D(H  32,C   6,C   5,H  31)    177.64 -0.000266    0.48    178.12   
   144. D(C   7,C   6,C   5,H  31)     -1.75 -0.000178    0.43     -1.32   
   145. D(C   7,C   6,C   5,C   4)    179.39 -0.000016    0.21    179.60   
   146. D(C   9,C   7,C   6,H  32)     -0.52  0.001136   -1.70     -2.22   
   147. D(C   9,C   7,C   6,C   5)    178.89  0.001037   -1.65    177.24   
   148. D(O   8,C   7,C   6,H  32)    174.51 -0.001266    2.20    176.71   
   149. D(O   8,C   7,C   6,C   5)     -6.08 -0.001365    2.25     -3.83   
   150. D(H  34,C   9,C   7,C   6)   -161.29 -0.000681   -0.51   -161.80   
   151. D(H  33,C   9,C   7,O   8)    145.42  0.001781   -4.40    141.02   
   152. D(H  33,C   9,C   7,C   6)    -39.37 -0.000446   -0.42    -39.79   
   153. D(C  10,C   9,C   7,O   8)    -96.39  0.001244   -4.44   -100.83   
   154. D(C  10,C   9,C   7,C   6)     78.82 -0.000983   -0.46     78.36   
   155. D(O  11,C  10,C   9,C   7)   -103.05  0.000533   -3.57   -106.61   
   156. D(C  12,C  10,C   9,H  33)   -164.93 -0.000409   -1.53   -166.46   
   157. D(C  12,C  10,C   9,C   7)     74.38 -0.000116   -1.56     72.82   
   158. D(O  11,C  10,C   9,H  34)    139.25  0.001075   -3.55    135.70   
   159. D(O  11,C  10,C   9,H  33)     17.64  0.000240   -3.54     14.11   
   160. D(H  35,C  12,C  10,C   9)     -2.01  0.000393   -1.27     -3.28   
   161. D(H  35,C  12,C  10,O  11)    175.32 -0.000317    0.73    176.04   
   162. D(C  13,C  12,C  10,C   9)    177.63  0.000303   -1.22    176.41   
   163. D(C  13,C  12,C  10,O  11)     -5.05 -0.000407    0.78     -4.27   
   164. D(H  36,C  13,C  12,H  35)    177.90 -0.000319    0.59    178.49   
   165. D(H  36,C  13,C  12,C  10)     -1.73 -0.000235    0.54     -1.19   
   166. D(C  14,C  13,C  12,H  35)     -0.95 -0.000178    0.30     -0.64   
   167. D(C  14,C  13,C  12,C  10)    179.43 -0.000093    0.25    179.68   
   168. D(C  22,C  14,C  13,C  12)    -13.86 -0.000724    8.01     -5.85   
   169. D(C  22,C  14,C  13,H  36)    167.31 -0.000561    7.74    175.04   
   170. D(C  15,C  14,C  13,C  12)    165.73 -0.000830    8.14    173.87   
   171. D(C  15,C  14,C  13,H  36)    -13.10 -0.000667    7.87     -5.23   
   172. D(H  37,C  15,C  14,C  22)   -179.41  0.000021   -0.04   -179.45   
   173. D(H  37,C  15,C  14,C  13)      0.98  0.000130   -0.16      0.82   
   174. D(C  16,C  15,C  14,C  22)      1.51  0.000161   -0.50      1.01   
   175. D(C  16,C  15,C  14,C  13)   -178.10  0.000270   -0.62   -178.72   
   176. D(H  38,C  16,C  15,H  37)      0.21  0.000049   -0.14      0.07   
   177. D(H  38,C  16,C  15,C  14)    179.29 -0.000094    0.32    179.61   
   178. D(C  17,C  16,C  15,H  37)    179.89 -0.000011    0.05    179.94   
   179. D(C  17,C  16,C  15,C  14)     -1.03 -0.000155    0.51     -0.52   
   180. D(C  19,C  17,C  16,H  38)    179.60 -0.000008   -0.02    179.59   
   181. D(C  19,C  17,C  16,C  15)     -0.08  0.000048   -0.21     -0.29   
   182. D(O  18,C  17,C  16,H  38)      0.25  0.000082   -0.24      0.01   
   183. D(O  18,C  17,C  16,C  15)   -179.44  0.000137   -0.43   -179.87   
   184. D(H  39,O  18,C  17,C  19)   -179.43  0.000047   -0.20   -179.63   
   185. D(H  39,O  18,C  17,C  16)     -0.06 -0.000040    0.02     -0.04   
   186. D(O  20,C  19,C  17,O  18)      0.60  0.000055   -0.10      0.50   
   187. D(O  20,C  19,C  17,C  16)   -178.81  0.000119   -0.32   -179.12   
   188. D(C  22,C  19,C  17,O  18)   -179.93 -0.000013    0.12   -179.81   
   189. D(C  22,C  19,C  17,C  16)      0.67  0.000051   -0.10      0.57   
   190. D(C  21,O  20,C  19,C  22)      0.19  0.000045   -0.06      0.13   
   191. D(C  21,O  20,C  19,C  17)    179.63 -0.000026    0.18    179.80   
   192. D(H  42,C  21,O  20,C  19)    -61.06  0.000298   -0.13    -61.19   
   193. D(H  41,C  21,O  20,C  19)    179.86  0.000029   -0.12    179.74   
   194. D(H  40,C  21,O  20,C  19)     60.77 -0.000277   -0.10     60.67   
   195. D(H  43,C  22,C  19,O  20)      0.75 -0.000007    0.11      0.85   
   196. D(H  43,C  22,C  19,C  17)   -178.67  0.000069   -0.13   -178.80   
   197. D(C  14,C  22,C  19,O  20)    179.26 -0.000120    0.34    179.60   
   198. D(C  14,C  22,C  19,C  17)     -0.16 -0.000044    0.10     -0.06   
   199. D(H  43,C  22,C  14,C  15)    177.60 -0.000173    0.42    178.02   
   200. D(H  43,C  22,C  14,C  13)     -2.80 -0.000272    0.56     -2.24   
   201. D(C  19,C  22,C  14,C  15)     -0.92 -0.000068    0.20     -0.73   
   202. D(C  19,C  22,C  14,C  13)    178.67 -0.000167    0.34    179.01   
   203. D(H  44,C  23,C   4,C   5)     -2.15 -0.000189    0.30     -1.85   
   204. D(H  44,C  23,C   4,C   3)    177.65 -0.000148    0.38    178.03   
   205. D(C  24,C  23,C   4,C   5)    179.40 -0.000078    0.04    179.44   
   206. D(C  24,C  23,C   4,C   3)     -0.81 -0.000037    0.13     -0.68   
   207. D(H  45,C  24,C  23,H  44)      0.77  0.000035   -0.05      0.73   
   208. D(H  45,C  24,C  23,C   4)    179.23 -0.000100    0.21    179.44   
   209. D(C  25,C  24,C  23,H  44)   -178.62  0.000080   -0.12   -178.73   
   210. D(C  25,C  24,C  23,C   4)     -0.16 -0.000055    0.14     -0.02   
   211. D(O  26,C  25,C  24,H  45)      0.64  0.000047   -0.13      0.50   
   212. D(O  26,C  25,C  24,C  23)   -179.97  0.000009   -0.06   -180.03   
   213. D(C   2,C  25,C  24,H  45)   -178.84  0.000089   -0.22   -179.06   
   214. D(C   2,C  25,C  24,C  23)      0.55  0.000052   -0.14      0.41   
   215. D(O  26,C  25,C   2,C   3)   -179.48  0.000061   -0.19   -179.67   
   216. D(O  26,C  25,C   2,O   1)      0.40  0.000105   -0.28      0.12   
   217. D(C  24,C  25,C   2,C   3)      0.03  0.000039   -0.11     -0.08   
   218. D(C  24,C  25,C   2,O   1)    179.92  0.000082   -0.20    179.71   
   219. D(H  46,O  26,C  25,C  24)      0.25  0.000007    0.16      0.41   
   220. D(H  46,O  26,C  25,C   2)    179.74 -0.000033    0.24    179.98   
    ----------------------------------------------------------------------------

Geometry step timings:
Preparation and reading OPT file:      0.000 s ( 0.000 %)
Internal coordinates            :      0.000 s ( 0.000 %)
B/P matrices and projection     :      0.007 s (35.000 %)
Hessian update/contruction      :      0.003 s (15.000 %)
Making the step                 :      0.005 s (25.000 %)
Converting the step to Cartesian:      0.000 s ( 0.000 %)
Storing new data                :      0.001 s ( 5.000 %)
Checking convergence            :      0.000 s ( 0.000 %)
Final printing                  :      0.004 s (20.000 %)
Total time                      :      0.020 s

Time for energy+gradient        :    459.205 s
Time for complete geometry iter :    459.332 s

         *************************************************************
         *                GEOMETRY OPTIMIZATION CYCLE   6            *
         *************************************************************
---------------------------------
CARTESIAN COORDINATES (ANGSTROEM)
---------------------------------
  C     -1.245088   -7.612929    2.010298
  O     -0.491008   -7.802149    0.823310
  C      0.189530   -6.736189    0.320690
  C      0.216910   -5.461459    0.874383
  C      0.961322   -4.411672    0.286498
  C      0.956977   -3.110090    0.935472
  C      1.707380   -2.023691    0.640328
  C      1.560141   -0.774669    1.408317
  O      0.726743   -0.614860    2.294872
  C      2.512429    0.368809    1.025401
  C      1.996165    1.045224   -0.257883
  O      2.569102    0.865800   -1.326885
  C      0.793891    1.881759   -0.100331
  C      0.293598    2.582416   -1.144234
  C     -0.874684    3.445721   -1.175045
  C     -1.145582    4.183089   -2.334793
  C     -2.243286    5.042764   -2.392200
  C     -3.098407    5.178320   -1.303422
  O     -4.184788    5.995583   -1.296185
  C     -2.851847    4.425914   -0.121263
  O     -3.752060    4.611820    0.880882
  C     -3.565904    3.886673    2.087424
  C     -1.754884    3.578585   -0.071525
  C      1.666877   -4.677511   -0.897593
  C      1.639403   -5.949796   -1.462695
  C      0.916242   -6.985176   -0.871479
  O      0.855461   -8.244531   -1.381452
  H     -0.605470   -7.309611    2.850482
  H     -2.031831   -6.858612    1.873212
  H     -1.701062   -8.579899    2.229291
  H     -0.336381   -5.256994    1.784745
  H      0.275080   -2.988024    1.777986
  H      2.444015   -2.034956   -0.158656
  H      3.517548   -0.004648    0.812891
  H      2.519315    1.077086    1.858666
  H      0.337643    1.911675    0.885358
  H      0.852489    2.492878   -2.076479
  H     -0.488901    4.089178   -3.195336
  H     -2.445127    5.618185   -3.294444
  H     -4.244284    6.443962   -2.154991
  H     -2.605950    4.132643    2.561098
  H     -4.385127    4.186981    2.742674
  H     -3.609065    2.802585    1.916588
  H     -1.574518    2.989364    0.819167
  H      2.221324   -3.885739   -1.390648
  H      2.180566   -6.150278   -2.386346
  H      1.391001   -8.280340   -2.190153

----------------------------
CARTESIAN COORDINATES (A.U.)
----------------------------
  NO LB      ZA    FRAG     MASS         X           Y           Z
   0 C     6.0000    0    12.011   -2.352876  -14.386352    3.798912
   1 O     8.0000    0    15.999   -0.927870  -14.743925    1.555831
   2 C     6.0000    0    12.011    0.358159  -12.729553    0.606016
   3 C     6.0000    0    12.011    0.409901  -10.320661    1.652345
   4 C     6.0000    0    12.011    1.816635   -8.336851    0.541403
   5 C     6.0000    0    12.011    1.808425   -5.877219    1.767787
   6 C     6.0000    0    12.011    3.226482   -3.824221    1.210044
   7 C     6.0000    0    12.011    2.948239   -1.463912    2.661333
   8 O     8.0000    0    15.999    1.373345   -1.161918    4.336680
   9 C     6.0000    0    12.011    4.747802    0.696948    1.937727
  10 C     6.0000    0    12.011    3.772205    1.975186   -0.487329
  11 O     8.0000    0    15.999    4.854900    1.636125   -2.507448
  12 C     6.0000    0    12.011    1.500237    3.556010   -0.189599
  13 C     6.0000    0    12.011    0.554820    4.880058   -2.162288
  14 C     6.0000    0    12.011   -1.652913    6.511469   -2.220513
  15 C     6.0000    0    12.011   -2.164836    7.904893   -4.412120
  16 C     6.0000    0    12.011   -4.239197    9.529442   -4.520603
  17 C     6.0000    0    12.011   -5.855141    9.785606   -2.463111
  18 O     8.0000    0    15.999   -7.908103   11.330009   -2.449435
  19 C     6.0000    0    12.011   -5.389209    8.363766   -0.229154
  20 O     8.0000    0    15.999   -7.090365    8.715077    1.664625
  21 C     6.0000    0    12.011   -6.738582    7.344748    3.944659
  22 C     6.0000    0    12.011   -3.316249    6.762545   -0.135162
  23 C     6.0000    0    12.011    3.149941   -8.839215   -1.696204
  24 C     6.0000    0    12.011    3.098022  -11.243486   -2.764092
  25 C     6.0000    0    12.011    1.731447  -13.200070   -1.646857
  26 O     8.0000    0    15.999    1.616587  -15.579906   -2.610565
  27 H     1.0000    0     1.008   -1.144172  -13.813163    5.386630
  28 H     1.0000    0     1.008   -3.839605  -12.960899    3.539858
  29 H     1.0000    0     1.008   -3.214542  -16.213659    4.212750
  30 H     1.0000    0     1.008   -0.635668   -9.934279    3.372679
  31 H     1.0000    0     1.008    0.519826   -5.646548    3.359907
  32 H     1.0000    0     1.008    4.618519   -3.845510   -0.299816
  33 H     1.0000    0     1.008    6.647202   -0.008783    1.536141
  34 H     1.0000    0     1.008    4.760816    2.035398    3.512371
  35 H     1.0000    0     1.008    0.638054    3.612541    1.673084
  36 H     1.0000    0     1.008    1.610971    4.710858   -3.923976
  37 H     1.0000    0     1.008   -0.923889    7.727426   -6.038309
  38 H     1.0000    0     1.008   -4.620620   10.616830   -6.225596
  39 H     1.0000    0     1.008   -8.020535   12.177324   -4.072343
  40 H     1.0000    0     1.008   -4.924532    7.809564    4.839774
  41 H     1.0000    0     1.008   -8.286690    7.912248    5.182902
  42 H     1.0000    0     1.008   -6.820144    5.296119    3.621826
  43 H     1.0000    0     1.008   -2.975407    5.649079    1.548002
  44 H     1.0000    0     1.008    4.197694   -7.342982   -2.627944
  45 H     1.0000    0     1.008    4.120673  -11.622341   -4.509541
  46 H     1.0000    0     1.008    2.628612  -15.647574   -4.138788

--------------------------------
INTERNAL COORDINATES (ANGSTROEM)
--------------------------------
 C      0   0   0     0.000000000000     0.00000000     0.00000000
 O      1   0   0     1.418936300422     0.00000000     0.00000000
 C      2   1   0     1.360892554859   118.05125381     0.00000000
 C      3   2   1     1.390059233190   125.52303225     0.20939910
 C      4   3   2     1.414853459726   121.68661358   179.58389017
 C      5   4   3     1.454407191578   118.49183944   180.90964401
 C      6   5   4     1.352952236598   128.28775671   171.73618484
 C      7   6   5     1.473615326159   120.76333480   179.61011638
 O      8   7   6     1.227221296886   123.69121084   356.23192767
 C      8   7   6     1.536560554486   116.03760207   177.18533743
 C     10   8   7     1.539767415475   109.07548622    78.31637886
 O     11  10   8     1.226055900791   120.37782824   253.41575017
 C     11  10   8     1.473118278879   115.71962751    72.80652642
 C     13  11  10     1.353123841501   120.88314853   176.38784693
 C     14  13  11     1.452972248083   128.41186981   179.68530898
 C     15  14  13     1.400755061347   119.06697701   173.87655610
 C     16  15  14     1.395453159275   120.69618041   181.27452819
 C     17  16  15     1.391058932961   120.75688207   359.48130375
 O     18  17  16     1.359482977441   123.64079098   180.12689985
 C     18  17  16     1.422816196983   119.48873015   359.71294829
 O     20  18  17     1.359867153916   115.16876721   180.88080231
 C     21  20  18     1.419942128036   118.00749758   179.79955389
 C     20  18  17     1.387000311072   119.33437576     0.57045437
 C      5   4   3     1.403762862574   118.32172408     1.02169385
 C     24   5   4     1.392409881402   120.36161137   359.32094207
 C     25  24   5     1.394456009203   121.10486397     0.00000000
 O     26  25  24     1.360051648892   123.48534625   179.97323644
 H      1   2   3     1.098646399159   111.54013656   298.96975726
 H      1   2   3     1.098522506661   111.57913476    60.92919830
 H      1   2   3     1.091283754778   105.76918307   179.95328486
 H      4   3   2     1.084755654023   119.80765260     0.08917764
 H      6   5   4     1.090740057227   116.53115338   352.68113071
 H      7   6   5     1.086798728035   121.86975335   359.04867368
 H     10   8   7     1.093112587716   111.35009518   320.16191850
 H     10   8   7     1.093634366410   107.21673981   198.16819271
 H     13  11  10     1.086572821789   117.08750387   356.69654981
 H     14  13  11     1.090622523356   115.30671477   358.80505851
 H     16  15  14     1.086546126485   119.56099740     0.81658493
 H     17  16  15     1.088986858180   120.35832745   179.61051246
 H     19  18  17     0.970634319416   108.78236182   359.96089175
 H     22  21  20     1.098353661544   111.50987927    60.67236080
 H     22  21  20     1.091175561437   105.74020067   179.73829847
 H     22  21  20     1.098314403337   111.51554301   298.80619234
 H     23  20  18     1.083071895486   119.57415741   181.19818643
 H     24   5   4     1.085089142760   120.12722992   178.02984069
 H     25  24   5     1.089120420504   120.17062309   179.44235804
 H     27  26  25     0.970609645280   108.77907823     0.40992698

---------------------------
INTERNAL COORDINATES (A.U.)
---------------------------
 C      0   0   0     0.000000000000     0.00000000     0.00000000
 O      1   0   0     2.681401009276     0.00000000     0.00000000
 C      2   1   0     2.571714226375   118.05125381     0.00000000
 C      3   2   1     2.626831260657   125.52303225     0.20939910
 C      4   3   2     2.673685558513   121.68661358   179.58389017
 C      5   4   3     2.748431279289   118.49183944   180.90964401
 C      6   5   4     2.556709199447   128.28775671   171.73618484
 C      7   6   5     2.784729393190   120.76333480   179.61011638
 O      8   7   6     2.319112156831   123.69121084   356.23192767
 C      8   7   6     2.903678636164   116.03760207   177.18533743
 C     10   8   7     2.909738725184   109.07548622    78.31637886
 O     11  10   8     2.316909877374   120.37782824   253.41575017
 C     11  10   8     2.783790109955   115.71962751    72.80652642
 C     13  11  10     2.557033485716   120.88314853   176.38784693
 C     14  13  11     2.745719629064   128.41186981   179.68530898
 C     15  14  13     2.647043446650   119.06697701   173.87655610
 C     16  15  14     2.637024303745   120.69618041   181.27452819
 C     17  16  15     2.628720419442   120.75688207   359.48130375
 O     18  17  16     2.569050511092   123.64079098   180.12689985
 C     18  17  16     2.688732951206   119.48873015   359.71294829
 O     20  18  17     2.569776499416   115.16876721   180.88080231
 C     21  20  18     2.683301748006   118.00749758   179.79955389
 C     20  18  17     2.621050735591   119.33437576     0.57045437
 C      5   4   3     2.652727367235   118.32172408     1.02169385
 C     24   5   4     2.631273342016   120.36161137   359.32094207
 C     25  24   5     2.635139963194   121.10486397     0.00000000
 O     26  25  24     2.570125144394   123.48534625   179.97323644
 H      1   2   3     2.076140812429   111.54013656   298.96975726
 H      1   2   3     2.075906689538   111.57913476    60.92919830
 H      1   2   3     2.062227430927   105.76918307   179.95328486
 H      4   3   2     2.049891108326   119.80765260     0.08917764
 H      6   5   4     2.061199991457   116.53115338   352.68113071
 H      7   6   5     2.053751958680   121.86975335   359.04867368
 H     10   8   7     2.065683424325   111.35009518   320.16191850
 H     10   8   7     2.066669443160   107.21673981   198.16819271
 H     13  11  10     2.053325057744   117.08750387   356.69654981
 H     14  13  11     2.060977884630   115.30671477   358.80505851
 H     16  15  14     2.053274610930   119.56099740     0.81658493
 H     17  16  15     2.057886925399   120.35832745   179.61051246
 H     19  18  17     1.834233039881   108.78236182   359.96089175
 H     22  21  20     2.075587618507   111.50987927    60.67236080
 H     22  21  20     2.062022975144   105.74020067   179.73829847
 H     22  21  20     2.075513431248   111.51554301   298.80619234
 H     23  20  18     2.046709265815   119.57415741   181.19818643
 H     24   5   4     2.050521310708   120.12722992   178.02984069
 H     25  24   5     2.058139321613   120.17062309   179.44235804
 H     27  26  25     1.834186412521   108.77907823     0.40992698

------------------------------------------------------------------------------
                   ___                                                        
                  /   \      - P O W E R E D   B Y -                         
                 /     \                                                     
                 |  |  |   _    _      __       _____    __    __             
                 |  |  |  | |  | |    /  \     |  _  \  |  |  /  |          
                  \  \/   | |  | |   /    \    | | | |  |  | /  /          
                 / \  \   | |__| |  /  /\  \   | |_| |  |  |/  /          
                |  |  |   |  __  | /  /__\  \  |    /   |      \           
                |  |  |   | |  | | |   __   |  |    \   |  |\   \          
                \     /   | |  | | |  |  |  |  | |\  \  |  | \   \       
                 \___/    |_|  |_| |__|  |__|  |_| \__\ |__|  \__/        
                                                                              
                      - O R C A' S   B I G   F R I E N D -                    
                                      &                                       
                       - I N T E G R A L  F E E D E R -                       
                                                                              
 v1 FN, 2020, v2 2021, v3 2022-2024                                           
------------------------------------------------------------------------------


----------------------
SHARK INTEGRAL PACKAGE
----------------------

Number of atoms                             ...     47
Number of basis functions                   ...    418
Number of shells                            ...    202
Maximum angular momentum                    ...      2
Integral batch strategy                     ... SHARK/LIBINT Hybrid
RI-J (if used) integral strategy            ... SPLIT-RIJ (Revised 2003 algorithm where possible)
Printlevel                                  ...      1
Contraction scheme used                     ... SEGMENTED contraction
Prescreening option                         ... SCHWARTZ
   Thresh                                   ... 2.500e-11
   Tcut                                     ... 2.500e-12
   Tpresel                                  ... 2.500e-12 
Coulomb Range Separation                    ... NOT USED
Exchange Range Separation                   ... NOT USED
Multipole approximations                    ... NOT USED
Finite Nucleus Model                        ... NOT USED
CABS basis                                  ... NOT available
Auxiliary Coulomb fitting basis             ... AVAILABLE
   # of basis functions in Aux-J            ...   1543
   # of shells in Aux-J                     ...    505
   Maximum angular momentum in Aux-J        ...      4
Auxiliary J/K fitting basis                 ... NOT available
Auxiliary Correlation fitting basis         ... NOT available
Auxiliary 'external' fitting basis          ... NOT available

Checking pre-screening integrals            ... done (  0.0 sec) Dimension = 202
   => SHARK Basis and OBASIS are compatible. Storing Pre-screening
Shell pair information
Shell pair cut-off parameter TPreSel        ...   2.5e-12
Total number of shell pairs                 ...     20503
Shell pairs after pre-screening             ...     10411
Total number of primitive shell pairs       ...    118482
Primitive shell pairs kept                  ...     33376
          la=0 lb=0:   3556 shell pairs
          la=1 lb=0:   3592 shell pairs
          la=1 lb=1:    915 shell pairs
          la=2 lb=0:   1437 shell pairs
          la=2 lb=1:    756 shell pairs
          la=2 lb=2:    155 shell pairs

Checking whether 4 symmetric matrices of dimension 418 fit in memory
:Max Core in MB      =   4096.00
 MB in use           =     16.47
 MB left             =   4079.53
 MB needed           =      2.67
 Data fit in memory  = YES
Calculating RI/J V-Matrix + Cholesky decomp.... done (  0.2 sec)
Calculating Nuclear repulsion               ... done (  0.0 sec) ENN=   2148.976571651981 Eh

Diagonalization of the overlap matrix:
Smallest eigenvalue                        ... 4.127e-04
Time for diagonalization                   ...    0.025 sec
Threshold for overlap eigenvalues          ... 1.000e-07
Number of eigenvalues below threshold      ... 0
Time for construction of square roots      ...    0.013 sec
Total time needed                          ...    0.040 sec

-------------------
DFT GRID GENERATION
-------------------

General Integration Accuracy     IntAcc      ... 4.388
Radial Grid Type                 RadialGrid  ... OptM3 with GC (2021)
Angular Grid (max. ang.)         AngularGrid ... 4 (Lebedev-302)
Angular grid pruning method      GridPruning ... 4 (adaptive)
Weight generation scheme         WeightScheme... mBecke (2022)
Basis function cutoff            BFCut       ... 1.0000e-11
Integration weight cutoff        WCut        ... 1.0000e-14
Partially contracted basis set               ... off
Rotationally invariant grid construction     ... off
Angular grids for H and He will be reduced by one unit

Total number of grid points                  ...   226265
Total number of batches                      ...     3555
Average number of points per batch           ...       63
Average number of grid points per atom       ...     4814

--------------------
COSX GRID GENERATION
--------------------

GRIDX 1
-------
General Integration Accuracy     IntAcc      ... 3.816
Radial Grid Type                 RadialGrid  ... OptM3 with GC (2021)
Angular Grid (max. ang.)         AngularGrid ... 1 (Lebedev-50)
Angular grid pruning method      GridPruning ... 4 (adaptive)
Weight generation scheme         WeightScheme... mBecke (2022)
Basis function cutoff            BFCut       ... 1.0000e-11
Integration weight cutoff        WCut        ... 1.0000e-14
Partially contracted basis set               ... on
Rotationally invariant grid construction     ... off
Angular grids for H and He will be reduced by one unit

Total number of grid points                  ...    28745
Total number of batches                      ...      252
Average number of points per batch           ...      114
Average number of grid points per atom       ...      612
UseSFitting                                  ... on

GRIDX 2
-------
General Integration Accuracy     IntAcc      ... 4.020
Radial Grid Type                 RadialGrid  ... OptM3 with GC (2021)
Angular Grid (max. ang.)         AngularGrid ... 2 (Lebedev-110)
Angular grid pruning method      GridPruning ... 4 (adaptive)
Weight generation scheme         WeightScheme... mBecke (2022)
Basis function cutoff            BFCut       ... 1.0000e-11
Integration weight cutoff        WCut        ... 1.0000e-14
Partially contracted basis set               ... on
Rotationally invariant grid construction     ... off
Angular grids for H and He will be reduced by one unit

Total number of grid points                  ...    62790
Total number of batches                      ...      517
Average number of points per batch           ...      121
Average number of grid points per atom       ...     1336
UseSFitting                                  ... on

GRIDX 3
-------
General Integration Accuracy     IntAcc      ... 4.338
Radial Grid Type                 RadialGrid  ... OptM3 with GC (2021)
Angular Grid (max. ang.)         AngularGrid ... 3 (Lebedev-194)
Angular grid pruning method      GridPruning ... 4 (adaptive)
Weight generation scheme         WeightScheme... mBecke (2022)
Basis function cutoff            BFCut       ... 1.0000e-11
Integration weight cutoff        WCut        ... 1.0000e-14
Partially contracted basis set               ... on
Rotationally invariant grid construction     ... off
Angular grids for H and He will be reduced by one unit

Total number of grid points                  ...   137481
Total number of batches                      ...     1096
Average number of points per batch           ...      125
Average number of grid points per atom       ...     2925
UseSFitting                                  ... on
Grids setup in   8.3 sec
Initializing property integral containers    ... done (  0.0 sec)

SHARK setup successfully completed in   9.0 seconds

Maximum memory used throughout the entire STARTUP-calculation: 91.5 MB
Occupation numbers will be reassigned to an Aufbau configuration
             **** ENERGY FILE WAS UPDATED (curcumin.en.tmp) ****
Finished Guess after   0.2 sec
Maximum memory used throughout the entire GUESS-calculation: 30.3 MB
----------------------------------------D-I-I-S--------------------------------------------
Iteration    Energy (Eh)           Delta-E    RMSDP     MaxDP     DIISErr   Damp  Time(sec)
-------------------------------------------------------------------------------------------
               ***  Starting incremental Fock matrix formation  ***
    1    -1262.7508915182443161     0.00e+00  3.17e-04  1.01e-02  4.38e-02  0.700  34.3
    2    -1262.7662063599973408    -1.53e-02  3.03e-04  9.60e-03  3.49e-02  0.700  14.5
                               ***Turning on AO-DIIS***
    3    -1262.7785295550820592    -1.23e-02  2.58e-04  8.12e-03  2.65e-02  0.700  14.2
    4    -1262.7877136438432899    -9.18e-03  6.67e-04  2.05e-02  1.93e-02  0.000  14.0
                              *** Initializing SOSCF ***
---------------------------------------S-O-S-C-F--------------------------------------
Iteration    Energy (Eh)           Delta-E    RMSDP     MaxDP     MaxGrad    Time(sec)
--------------------------------------------------------------------------------------
    5    -1262.8109383166174666    -2.32e-02  4.48e-05  1.33e-03  1.29e-03    15.5
               *** Restarting incremental Fock matrix formation ***
    6    -1262.8109833067615000    -4.50e-05  3.74e-05  1.83e-03  3.47e-04    34.3
    7    -1262.8109893159748935    -6.01e-06  2.73e-05  1.44e-03  4.15e-04    21.6
    8    -1262.8109965014568843    -7.19e-06  1.43e-05  4.11e-04  1.70e-04    20.7
    9    -1262.8109987662323874    -2.26e-06  5.55e-06  2.37e-04  4.70e-05    19.4
   10    -1262.8109986467857198     1.19e-07  3.91e-06  1.23e-04  7.76e-05    16.3
   11    -1262.8109990092862063    -3.63e-07  8.63e-07  3.12e-05  6.12e-06    16.1
   12    -1262.8109990091575128     1.29e-10  5.34e-07  2.00e-05  8.52e-06    12.0
                 **** Energy Check signals convergence ****

               *****************************************************
               *                     SUCCESS                       *
               *           SCF CONVERGED AFTER  12 CYCLES          *
               *****************************************************

Recomputing exchange energy using gridx3       ... done (   57.140 sec)
Old exchange energy                            :    -33.083365992 Eh
New exchange energy                            :    -33.083450040 Eh
Exchange energy change after final integration :     -0.000084049 Eh
Total energy after final integration           :  -1262.811083070 Eh
             **** ENERGY FILE WAS UPDATED (curcumin.en.tmp) ****

----------------
TOTAL SCF ENERGY
----------------

Total Energy       :      -1262.81108307001227 Eh          -34362.83654 eV

Components:
Nuclear Repulsion  :       2148.97657165198098 Eh           58476.62541 eV
Electronic Energy  :      -3411.78757067308015 Eh          -92839.45966 eV
One Electron Energy:      -5991.34140433279663 Eh         -163032.68803 eV
Two Electron Energy:       2579.55383365971647 Eh           70193.22837 eV

Virial components:
Potential Energy   :      -2518.26461376864381 Eh          -68525.46391 eV
Kinetic Energy     :       1255.45353069863154 Eh           34162.62736 eV
Virial Ratio       :          2.00586047367861

DFT components:
N(Alpha)           :       96.999896720629 electrons
N(Beta)            :       96.999896720629 electrons
N(Total)           :      193.999793441258 electrons
E(X)               :     -131.495684377599 Eh       
E(C)               :       -7.826778725144 Eh       
E(XC)              :     -139.322463102743 Eh       

---------------
SCF CONVERGENCE
---------------

  Last Energy change         ...   -1.2869e-10  Tolerance :   1.0000e-08
  Last MAX-Density change    ...    2.0008e-05  Tolerance :   1.0000e-07
  Last RMS-Density change    ...    5.3359e-07  Tolerance :   5.0000e-09
  Last DIIS Error            ...    1.2887e-03  Tolerance :   5.0000e-07
  Last Orbital Gradient      ...    8.5249e-06  Tolerance :   1.0000e-05
  Last Orbital Rotation      ...    1.5019e-05  Tolerance :   1.0000e-05


Total SCF time: 0 days 0 hours 5 min 1 sec 
Finished LeanSCF after 301.4 sec

Maximum memory used throughout the entire LEANSCF-calculation: 59.3 MB

-------------------------   --------------------
FINAL SINGLE POINT ENERGY     -1262.811083070012
-------------------------   --------------------

------------------------------------------------------------------------------
                         ORCA SCF GRADIENT CALCULATION
------------------------------------------------------------------------------

Nuc. rep. gradient        (SHARK) ... done (  0.0 sec)
HCore & Overlap gradient  (SHARK) ... done (  2.1 sec)
Split-RIJ-J gradient      (SHARK) ... done ( 10.5 sec)
COSX-gradient                     ... done (113.5 sec)
XC gradient                       ... done ( 24.4 sec)

------------------
CARTESIAN GRADIENT
------------------

   1   C   :   -0.000656709   -0.000856073    0.000281300
   2   O   :    0.000346330    0.000319106   -0.000224768
   3   C   :   -0.000429519    0.000785061    0.001431239
   4   C   :   -0.000359665   -0.000420072   -0.000068648
   5   C   :    0.000145297    0.001279722    0.000326230
   6   C   :   -0.000155787   -0.002912291   -0.001488369
   7   C   :    0.000648448    0.002135583    0.001345371
   8   C   :   -0.002339480   -0.000952665   -0.002809709
   9   O   :    0.000262286    0.000457253    0.000947266
  10   C   :    0.003985427    0.001358295    0.002745313
  11   C   :   -0.003309322   -0.000973291   -0.000971805
  12   O   :    0.000946454   -0.000067631   -0.000179932
  13   C   :    0.002466613   -0.001243975    0.000510971
  14   C   :   -0.002886857    0.002092635    0.000105897
  15   C   :    0.001482819   -0.000713436   -0.001651181
  16   C   :   -0.000113062   -0.000433110    0.000385438
  17   C   :    0.000202675   -0.000469105    0.001129977
  18   C   :   -0.000318441    0.001427426   -0.002255653
  19   O   :    0.000595566   -0.000374519   -0.000129588
  20   C   :    0.000783401   -0.000888110    0.001149711
  21   O   :    0.000167241   -0.000101596   -0.000443310
  22   C   :   -0.000748932    0.000216300    0.000862362
  23   C   :   -0.000974494    0.000672559    0.001231757
  24   C   :    0.000403858   -0.000311777   -0.000327111
  25   C   :   -0.000496445   -0.000105427    0.001104165
  26   C   :    0.001526860   -0.000304341   -0.002347141
  27   O   :   -0.000061839    0.000530121    0.000170058
  28   H   :   -0.000103363    0.000511792   -0.000093047
  29   H   :    0.000362034    0.000301773    0.000247272
  30   H   :    0.000125028   -0.000014620   -0.000210582
  31   H   :   -0.000193048   -0.000154880    0.000058357
  32   H   :    0.000387906    0.000863351    0.000358746
  33   H   :    0.000039274   -0.000831249    0.000246085
  34   H   :   -0.000380289   -0.000036861   -0.001104371
  35   H   :   -0.001080404   -0.000382944    0.000158439
  36   H   :   -0.000114419    0.000767491   -0.000371153
  37   H   :    0.000920282   -0.000297874    0.000400987
  38   H   :    0.000029952   -0.000232976   -0.000006696
  39   H   :   -0.000490963    0.000290093    0.000224181
  40   H   :   -0.000269575    0.000157880    0.000063652
  41   H   :    0.000203724   -0.000493353   -0.000240666
  42   H   :   -0.000023654    0.000131614   -0.000240528
  43   H   :    0.000552864    0.000019186   -0.000028112
  44   H   :   -0.000294261   -0.000393284   -0.000275543
  45   H   :   -0.000531799    0.000401646    0.000130742
  46   H   :   -0.000246865   -0.000506540   -0.000107876
  47   H   :   -0.000005146   -0.000246889   -0.000039729

Difference to translation invariance:
           :   -0.0000000001   -0.0000000001   -0.0000000000

Difference to rotation invariance:
           :    0.0000405254    0.0000860682    0.0001031273

Norm of the Cartesian gradient     ...    0.0118691851
RMS gradient                       ...    0.0009995657
MAX gradient                       ...    0.0039854274

-------
TIMINGS
-------

Total SCF gradient time     ....      150.608 sec

Densities                   ....       0.007 sec  (  0.0%)
One electron gradient       ....       2.113 sec  (  1.4%)
RI-J Coulomb gradient       ....      10.525 sec  (  7.0%)
COSX gradient               ....     113.550 sec  ( 75.4%)
XC gradient                 ....      24.413 sec  ( 16.2%)

Maximum memory used throughout the entire SCFGRAD-calculation: 66.7 MB
------------------------------------------------------------------------------
                         ORCA GEOMETRY RELAXATION STEP
------------------------------------------------------------------------------

Reading the OPT-File                    .... done
Getting information on internals        .... done
Copying old internal coords+grads       .... done
Making the new internal coordinates     .... (2022 redundants) done
Validating the new internal coordinates .... (2022 redundants) done
Calculating the B-matrix                .... done
Calculating the G,G- and P matrices     .... done
Transforming gradient to internals      .... done
Projecting the internal gradient        .... done
Number of atoms                         ....  47
Number of internal coordinates          .... 220
Current Energy                          .... -1262.811083070 Eh
Current gradient norm                   ....     0.011869185 Eh/bohr
Maximum allowed component of the step   ....  0.300
Current trust radius                    ....  0.700
Updating the Hessian (BFGS)             .... done
Forming the augmented Hessian           .... done
Diagonalizing the augmented Hessian     .... done
Last element of RFO vector              ....  0.983254834
Lowest eigenvalues of augmented Hessian:
 -0.000399191  0.004263008  0.012683495  0.012789890  0.012826420
Length of the computed step             ....  0.185339460
The final length of the internal step   ....  0.185339460
Converting the step to Cartesian space:
 Initial RMS(Int)=    0.0124955838
Transforming coordinates:
 Iter   0:  RMS(Cart)=    0.1419027282 RMS(Int)=    0.7335839400
 Iter   5:  RMS(Cart)=    0.0000000849 RMS(Int)=    0.0000000311
done
Storing new coordinates                 .... done
The predicted energy change is          ....    -0.000206452
Previously predicted energy change      ....    -0.000909278
Actually observed energy change         ....    -0.000858496
Ratio of predicted to observed change   ....     0.944151968
New trust radius                        ....     0.700000000

                                .--------------------.
          ----------------------|Geometry convergence|-------------------------
          Item                value                   Tolerance       Converged
          ---------------------------------------------------------------------
          Energy change      -0.0008584962            0.0000050000      NO
          RMS gradient        0.0004553714            0.0001000000      NO
          MAX gradient        0.0021233301            0.0003000000      NO
          RMS step            0.0124955838            0.0020000000      NO
          MAX step            0.0587796865            0.0040000000      NO
          -------------------------------------------------------------------------
          ........................................................
          Max(Bonds)      0.0024      Max(Angles)    0.54
          Max(Dihed)        3.37      Max(Improp)    0.00
          ---------------------------------------------------------------------

The optimization has not yet converged - more geometry cycles are needed


    ---------------------------------------------------------------------------
                         Redundant Internal Coordinates
                            (Angstroem and degrees)

        Definition                    Value    dE/dq     Step     New-Value
    ----------------------------------------------------------------------------
     1. B(O   1,C   0)                1.4189  0.000326 -0.0003    1.4187   
     2. B(C   2,O   1)                1.3609 -0.000241  0.0006    1.3615   
     3. B(C   3,C   2)                1.3901 -0.000605  0.0009    1.3909   
     4. B(C   4,C   3)                1.4149  0.000180 -0.0003    1.4146   
     5. B(C   5,C   4)                1.4544 -0.001230  0.0011    1.4555   
     6. B(C   6,C   5)                1.3530  0.000471 -0.0004    1.3525   
     7. B(C   7,C   6)                1.4736 -0.000732  0.0012    1.4749   
     8. B(O   8,C   7)                1.2272  0.000566  0.0002    1.2274   
     9. B(C   9,C   7)                1.5366  0.000586 -0.0024    1.5342   
    10. B(C  10,C   9)                1.5398  0.000611 -0.0023    1.5375   
    11. B(O  11,C  10)                1.2261  0.000609  0.0001    1.2261   
    12. B(C  12,C  10)                1.4731 -0.000837  0.0013    1.4744   
    13. B(C  13,C  12)                1.3531  0.000537 -0.0005    1.3526   
    14. B(C  14,C  13)                1.4530 -0.001332  0.0011    1.4541   
    15. B(C  15,C  14)                1.4008 -0.000653  0.0006    1.4014   
    16. B(C  16,C  15)                1.3955  0.000154 -0.0001    1.3954   
    17. B(C  17,C  16)                1.3911 -0.001059  0.0009    1.3920   
    18. B(O  18,C  17)                1.3595 -0.000392  0.0005    1.3599   
    19. B(C  19,C  17)                1.4228  0.001404 -0.0018    1.4210   
    20. B(O  20,C  19)                1.3599 -0.000199  0.0006    1.3604   
    21. B(C  21,O  20)                1.4199  0.000361 -0.0003    1.4196   
    22. B(C  22,C  19)                1.3870 -0.000726  0.0007    1.3877   
    23. B(C  22,C  14)                1.4178  0.001053 -0.0009    1.4169   
    24. B(C  23,C   4)                1.4038  0.000094  0.0002    1.4039   
    25. B(C  24,C  23)                1.3924  0.000134 -0.0003    1.3921   
    26. B(C  25,C  24)                1.3945 -0.001136  0.0013    1.3958   
    27. B(C  25,C   2)                1.4182  0.001496 -0.0023    1.4160   
    28. B(O  26,C  25)                1.3601 -0.000308  0.0004    1.3605   
    29. B(H  27,C   0)                1.0986  0.000010 -0.0001    1.0985   
    30. B(H  28,C   0)                1.0985 -0.000083 -0.0000    1.0985   
    31. B(H  29,C   0)                1.0913 -0.000081  0.0002    1.0915   
    32. B(H  30,C   3)                1.0848  0.000118 -0.0002    1.0846   
    33. B(H  31,C   5)                1.0907  0.000131 -0.0003    1.0905   
    34. B(H  32,C   6)                1.0868 -0.000146  0.0001    1.0869   
    35. B(H  33,C   9)                1.0931 -0.000123  0.0004    1.0935   
    36. B(H  34,C   9)                1.0936 -0.000134  0.0004    1.0940   
    37. B(H  35,C  12)                1.0866 -0.000267  0.0003    1.0869   
    38. B(H  36,C  13)                1.0906  0.000153 -0.0003    1.0904   
    39. B(H  37,C  15)                1.0865  0.000044 -0.0000    1.0865   
    40. B(H  38,C  16)                1.0890  0.000059 -0.0003    1.0887   
    41. B(H  39,O  18)                0.9706  0.000034 -0.0002    0.9705   
    42. B(H  40,C  21)                1.0984 -0.000036 -0.0000    1.0983   
    43. B(H  41,C  21)                1.0912 -0.000091  0.0002    1.0914   
    44. B(H  42,C  21)                1.0983 -0.000036 -0.0000    1.0983   
    45. B(H  43,C  22)                1.0831 -0.000062  0.0001    1.0831   
    46. B(H  44,C  23)                1.0851 -0.000038  0.0001    1.0852   
    47. B(H  45,C  24)                1.0891  0.000062 -0.0002    1.0889   
    48. B(H  46,O  26)                0.9706  0.000039 -0.0002    0.9704   
    49. A(O   1,C   0,H  28)          111.58  0.000049   -0.03    111.55   
    50. A(H  27,C   0,H  28)          108.83 -0.000518    0.23    109.07   
    51. A(H  28,C   0,H  29)          109.53  0.000322   -0.15    109.37   
    52. A(H  27,C   0,H  29)          109.54  0.000353   -0.16    109.38   
    53. A(O   1,C   0,H  29)          105.77 -0.000135    0.10    105.87   
    54. A(O   1,C   0,H  27)          111.54 -0.000033   -0.01    111.53   
    55. A(C   0,O   1,C   2)          118.05  0.000256   -0.08    117.97   
    56. A(O   1,C   2,C   3)          125.52 -0.000172    0.01    125.54   
    57. A(O   1,C   2,C  25)          115.42 -0.000108    0.06    115.47   
    58. A(C   3,C   2,C  25)          119.06  0.000280   -0.07    118.99   
    59. A(C   4,C   3,H  30)          118.50  0.000357   -0.09    118.42   
    60. A(C   2,C   3,H  30)          119.81 -0.000073    0.04    119.85   
    61. A(C   2,C   3,C   4)          121.69 -0.000285    0.05    121.74   
    62. A(C   3,C   4,C  23)          118.32  0.000058   -0.02    118.30   
    63. A(C   3,C   4,C   5)          118.49  0.000205   -0.14    118.36   
    64. A(C   5,C   4,C  23)          123.19 -0.000264    0.16    123.35   
    65. A(C   4,C   5,H  31)          116.53  0.000907   -0.27    116.26   
    66. A(C   4,C   5,C   6)          128.29  0.000206    0.10    128.39   
    67. A(C   6,C   5,H  31)          115.18 -0.001115    0.17    115.35   
    68. A(C   5,C   6,H  32)          121.87 -0.000952    0.30    122.17   
    69. A(C   7,C   6,H  32)          117.36  0.000552   -0.16    117.20   
    70. A(C   5,C   6,C   7)          120.76  0.000399   -0.14    120.62   
    71. A(O   8,C   7,C   9)          120.26 -0.000756    0.13    120.39   
    72. A(C   6,C   7,C   9)          116.04  0.000024    0.05    116.09   
    73. A(C   6,C   7,O   8)          123.69  0.000744   -0.16    123.53   
    74. A(H  33,C   9,H  34)          111.32  0.000963   -0.54    110.78   
    75. A(C   7,C   9,H  34)          107.22 -0.000372    0.17    107.39   
    76. A(C   7,C   9,C  10)          109.08 -0.002123    0.50    109.57   
    77. A(C  10,C   9,H  34)          110.65  0.000626   -0.14    110.51   
    78. A(C   7,C   9,H  33)          111.35  0.000873   -0.12    111.23   
    79. A(C  10,C   9,H  33)          107.24 -0.000017    0.10    107.34   
    80. A(O  11,C  10,C  12)          123.90  0.000800   -0.19    123.71   
    81. A(C   9,C  10,C  12)          115.72 -0.000223    0.07    115.79   
    82. A(C   9,C  10,O  11)          120.38 -0.000568    0.06    120.44   
    83. A(C  10,C  12,H  35)          117.09  0.000451   -0.16    116.93   
    84. A(C  13,C  12,H  35)          122.03 -0.000964    0.31    122.34   
    85. A(C  10,C  12,C  13)          120.88  0.000512   -0.16    120.72   
    86. A(C  14,C  13,H  36)          116.28  0.000755   -0.24    116.03   
    87. A(C  12,C  13,H  36)          115.31 -0.001230    0.19    115.50   
    88. A(C  12,C  13,C  14)          128.41  0.000473    0.06    128.47   
    89. A(C  15,C  14,C  22)          118.36 -0.000002   -0.01    118.35   
    90. A(C  13,C  14,C  22)          122.57 -0.000249    0.20    122.77   
    91. A(C  13,C  14,C  15)          119.07  0.000251   -0.19    118.88   
    92. A(C  16,C  15,H  37)          119.74  0.000184   -0.07    119.67   
    93. A(C  14,C  15,H  37)          119.56 -0.000157    0.01    119.58   
    94. A(C  14,C  15,C  16)          120.70 -0.000027    0.06    120.75   
    95. A(C  17,C  16,H  38)          118.88 -0.000850    0.21    119.09   
    96. A(C  15,C  16,H  38)          120.36  0.000403   -0.08    120.28   
    97. A(C  15,C  16,C  17)          120.76  0.000447   -0.13    120.62   
    98. A(O  18,C  17,C  19)          116.87 -0.000053    0.11    116.98   
    99. A(C  16,C  17,C  19)          119.49 -0.000298    0.11    119.60   
   100. A(C  16,C  17,O  18)          123.64  0.000350   -0.22    123.42   
   101. A(C  17,O  18,H  39)          108.78  0.000580   -0.02    108.76   
   102. A(O  20,C  19,C  22)          125.50 -0.000130    0.02    125.52   
   103. A(C  17,C  19,C  22)          119.33  0.000012   -0.02    119.31   
   104. A(C  17,C  19,O  20)          115.17  0.000117   -0.00    115.17   
   105. A(C  19,O  20,C  21)          118.01  0.000192   -0.06    117.95   
   106. A(H  41,C  21,H  42)          109.61  0.000365   -0.16    109.44   
   107. A(H  40,C  21,H  42)          108.81 -0.000557    0.25    109.06   
   108. A(H  40,C  21,H  41)          109.61  0.000370   -0.17    109.44   
   109. A(O  20,C  21,H  41)          105.74 -0.000166    0.10    105.84   
   110. A(O  20,C  21,H  40)          111.51  0.000054   -0.03    111.48   
   111. A(O  20,C  21,H  42)          111.52 -0.000027   -0.01    111.50   
   112. A(C  14,C  22,C  19)          121.35 -0.000135    0.01    121.36   
   113. A(C  19,C  22,H  43)          119.57  0.000108   -0.04    119.54   
   114. A(C  14,C  22,H  43)          119.06  0.000024    0.04    119.10   
   115. A(C   4,C  23,C  24)          120.36  0.000060    0.02    120.38   
   116. A(C  24,C  23,H  44)          119.50  0.000480   -0.17    119.33   
   117. A(C   4,C  23,H  44)          120.13 -0.000544    0.15    120.28   
   118. A(C  25,C  24,H  45)          118.72 -0.000682    0.17    118.89   
   119. A(C  23,C  24,H  45)          120.17  0.000464   -0.08    120.09   
   120. A(C  23,C  24,C  25)          121.10  0.000217   -0.08    121.02   
   121. A(C  24,C  25,O  26)          123.49  0.000467   -0.26    123.23   
   122. A(C   2,C  25,O  26)          117.06 -0.000135    0.14    117.20   
   123. A(C   2,C  25,C  24)          119.46 -0.000333    0.12    119.57   
   124. A(C  25,O  26,H  46)          108.78  0.000448    0.01    108.78   
   125. D(C   2,O   1,C   0,H  27)    -61.03  0.000326   -0.10    -61.13   
   126. D(C   2,O   1,C   0,H  28)     60.93 -0.000330    0.17     61.10   
   127. D(C   2,O   1,C   0,H  29)    179.95  0.000001    0.03    179.99   
   128. D(C   3,C   2,O   1,C   0)      0.21  0.000032   -0.10      0.11   
   129. D(C  25,C   2,O   1,C   0)   -179.57  0.000097   -0.24   -179.81   
   130. D(H  30,C   3,C   2,C  25)    179.86 -0.000025    0.06    179.92   
   131. D(C   4,C   3,C   2,C  25)     -0.65 -0.000101    0.34     -0.30   
   132. D(H  30,C   3,C   2,O   1)      0.09  0.000044   -0.08      0.01   
   133. D(C   4,C   3,C   2,O   1)    179.58 -0.000033    0.20    179.79   
   134. D(C  23,C   4,C   3,C   2)      1.02  0.000159   -0.51      0.52   
   135. D(C  23,C   4,C   3,H  30)   -179.48  0.000081   -0.23   -179.71   
   136. D(C   5,C   4,C   3,H  30)      0.41  0.000087   -0.18      0.23   
   137. D(C   5,C   4,C   3,C   2)   -179.09  0.000164   -0.46   -179.55   
   138. D(C   6,C   5,C   4,C   3)    171.74 -0.000305    3.32    175.05   
   139. D(C   6,C   5,C   4,C  23)     -8.38 -0.000299    3.37     -5.01   
   140. D(H  31,C   5,C   4,C   3)     -7.32 -0.000135    2.84     -4.48   
   141. D(H  31,C   5,C   4,C  23)    172.56 -0.000129    2.89    175.45   
   142. D(H  32,C   6,C   5,C   4)     -0.95 -0.000249    0.40     -0.55   
   143. D(H  32,C   6,C   5,H  31)    178.11 -0.000401    0.89    179.00   
   144. D(C   7,C   6,C   5,H  31)     -1.32 -0.000290    0.57     -0.75   
   145. D(C   7,C   6,C   5,C   4)    179.61 -0.000138    0.08    179.69   
   146. D(C   9,C   7,C   6,H  32)     -2.28 -0.000374   -0.07     -2.35   
   147. D(C   9,C   7,C   6,C   5)    177.19 -0.000488    0.23    177.42   
   148. D(O   8,C   7,C   6,H  32)    176.77  0.000504   -0.05    176.72   
   149. D(O   8,C   7,C   6,C   5)     -3.77  0.000390    0.25     -3.52   
   150. D(H  34,C   9,C   7,C   6)   -161.83 -0.000401   -0.70   -162.53   
   151. D(H  33,C   9,C   7,O   8)    141.08  0.000215   -1.32    139.76   
   152. D(H  33,C   9,C   7,C   6)    -39.84  0.001076   -1.32    -41.16   
   153. D(C  10,C   9,C   7,O   8)   -100.77 -0.000615   -0.95   -101.71   
   154. D(C  10,C   9,C   7,C   6)     78.32  0.000246   -0.95     77.37   
   155. D(O  11,C  10,C   9,C   7)   -106.58 -0.000435   -0.55   -107.13   
   156. D(C  12,C  10,C   9,H  33)   -166.49  0.000293   -2.41   -168.90   
   157. D(C  12,C  10,C   9,C   7)     72.81  0.000458   -2.64     70.17   
   158. D(O  11,C  10,C   9,H  34)    135.71  0.000941   -1.00    134.71   
   159. D(O  11,C  10,C   9,H  33)     14.12 -0.000600   -0.32     13.80   
   160. D(H  35,C  12,C  10,C   9)     -3.30 -0.000464    1.08     -2.22   
   161. D(H  35,C  12,C  10,O  11)    176.06  0.000455   -1.01    175.06   
   162. D(C  13,C  12,C  10,C   9)    176.39 -0.000572    1.36    177.75   
   163. D(C  13,C  12,C  10,O  11)     -4.25  0.000347   -0.72     -4.97   
   164. D(H  36,C  13,C  12,H  35)    178.48 -0.000484    1.06    179.54   
   165. D(H  36,C  13,C  12,C  10)     -1.19 -0.000375    0.76     -0.43   
   166. D(C  14,C  13,C  12,H  35)     -0.64 -0.000292    0.50     -0.14   
   167. D(C  14,C  13,C  12,C  10)    179.69 -0.000183    0.20    179.89   
   168. D(C  22,C  14,C  13,C  12)     -5.85 -0.000240    3.15     -2.70   
   169. D(C  22,C  14,C  13,H  36)    175.04 -0.000032    2.61    177.65   
   170. D(C  15,C  14,C  13,C  12)    173.88 -0.000306    3.32    177.20   
   171. D(C  15,C  14,C  13,H  36)     -5.24 -0.000098    2.77     -2.46   
   172. D(H  37,C  15,C  14,C  22)   -179.45  0.000108   -0.29   -179.73   
   173. D(H  37,C  15,C  14,C  13)      0.82  0.000172   -0.45      0.37   
   174. D(C  16,C  15,C  14,C  22)      1.01  0.000208   -0.65      0.36   
   175. D(C  16,C  15,C  14,C  13)   -178.73  0.000272   -0.81   -179.54   
   176. D(H  38,C  16,C  15,H  37)      0.07  0.000012   -0.06      0.01   
   177. D(H  38,C  16,C  15,C  14)    179.61 -0.000090    0.30    179.91   
   178. D(C  17,C  16,C  15,H  37)    179.94 -0.000017    0.05    179.99   
   179. D(C  17,C  16,C  15,C  14)     -0.52 -0.000119    0.41     -0.11   
   180. D(C  19,C  17,C  16,H  38)    179.59 -0.000066    0.17    179.75   
   181. D(C  19,C  17,C  16,C  15)     -0.29 -0.000038    0.06     -0.23   
   182. D(O  18,C  17,C  16,H  38)     -0.00  0.000019   -0.09     -0.09   
   183. D(O  18,C  17,C  16,C  15)   -179.87  0.000047   -0.20   -180.07   
   184. D(H  39,O  18,C  17,C  19)   -179.64  0.000052   -0.17   -179.81   
   185. D(H  39,O  18,C  17,C  16)     -0.04 -0.000032    0.08      0.04   
   186. D(O  20,C  19,C  17,O  18)      0.49  0.000084   -0.24      0.26   
   187. D(O  20,C  19,C  17,C  16)   -179.12  0.000162   -0.48   -179.60   
   188. D(C  22,C  19,C  17,O  18)   -179.82  0.000021   -0.03   -179.84   
   189. D(C  22,C  19,C  17,C  16)      0.57  0.000099   -0.27      0.30   
   190. D(C  21,O  20,C  19,C  22)      0.13  0.000015   -0.06      0.07   
   191. D(C  21,O  20,C  19,C  17)    179.80 -0.000052    0.16    179.96   
   192. D(H  42,C  21,O  20,C  19)    -61.19  0.000325   -0.12    -61.32   
   193. D(H  41,C  21,O  20,C  19)    179.74  0.000001    0.02    179.75   
   194. D(H  40,C  21,O  20,C  19)     60.67 -0.000373    0.17     60.84   
   195. D(H  43,C  22,C  19,O  20)      0.85  0.000106   -0.28      0.57   
   196. D(H  43,C  22,C  19,C  17)   -178.80  0.000175   -0.51   -179.31   
   197. D(C  14,C  22,C  19,O  20)    179.59 -0.000077    0.25    179.85   
   198. D(C  14,C  22,C  19,C  17)     -0.06 -0.000008    0.02     -0.04   
   199. D(H  43,C  22,C  14,C  15)    178.02 -0.000326    0.96    178.99   
   200. D(H  43,C  22,C  14,C  13)     -2.25 -0.000391    1.13     -1.12   
   201. D(C  19,C  22,C  14,C  15)     -0.72 -0.000145    0.44     -0.29   
   202. D(C  19,C  22,C  14,C  13)    179.00 -0.000210    0.60    179.60   
   203. D(H  44,C  23,C   4,C   5)     -1.85 -0.000282    0.77     -1.09   
   204. D(H  44,C  23,C   4,C   3)    178.03 -0.000276    0.82    178.85   
   205. D(C  24,C  23,C   4,C   5)    179.44 -0.000120    0.28    179.72   
   206. D(C  24,C  23,C   4,C   3)     -0.68 -0.000114    0.34     -0.34   
   207. D(H  45,C  24,C  23,H  44)      0.73  0.000078   -0.22      0.50   
   208. D(H  45,C  24,C  23,C   4)    179.44 -0.000096    0.26    179.70   
   209. D(C  25,C  24,C  23,H  44)   -178.74  0.000182   -0.49   -179.22   
   210. D(C  25,C  24,C  23,C   4)     -0.02  0.000007   -0.01     -0.03   
   211. D(O  26,C  25,C  24,H  45)      0.50  0.000060   -0.19      0.31   
   212. D(O  26,C  25,C  24,C  23)    179.97 -0.000036    0.08    180.05   
   213. D(C   2,C  25,C  24,H  45)   -179.06  0.000148   -0.42   -179.49   
   214. D(C   2,C  25,C  24,C  23)      0.41  0.000052   -0.16      0.25   
   215. D(O  26,C  25,C   2,C   3)   -179.67  0.000075   -0.24   -179.91   
   216. D(O  26,C  25,C   2,O   1)      0.12  0.000013   -0.11      0.01   
   217. D(C  24,C  25,C   2,C   3)     -0.08 -0.000005   -0.01     -0.09   
   218. D(C  24,C  25,C   2,O   1)    179.72 -0.000067    0.12    179.83   
   219. D(H  46,O  26,C  25,C  24)      0.41  0.000076   -0.14      0.27   
   220. D(H  46,O  26,C  25,C   2)    179.98 -0.000010    0.09    180.07   
    ----------------------------------------------------------------------------

Geometry step timings:
Preparation and reading OPT file:      0.001 s ( 4.167 %)
Internal coordinates            :      0.000 s ( 0.000 %)
B/P matrices and projection     :      0.007 s (29.167 %)
Hessian update/contruction      :      0.003 s (12.500 %)
Making the step                 :      0.007 s (29.167 %)
Converting the step to Cartesian:      0.001 s ( 4.167 %)
Storing new data                :      0.000 s ( 0.000 %)
Checking convergence            :      0.001 s ( 4.167 %)
Final printing                  :      0.004 s (16.667 %)
Total time                      :      0.024 s

Time for energy+gradient        :    461.600 s
Time for complete geometry iter :    461.729 s

         *************************************************************
         *                GEOMETRY OPTIMIZATION CYCLE   7            *
         *************************************************************
---------------------------------
CARTESIAN COORDINATES (ANGSTROEM)
---------------------------------
  C     -1.390431   -7.496275    1.910608
  O     -0.609772   -7.706047    0.744785
  C      0.129846   -6.663778    0.275410
  C      0.191995   -5.395835    0.843901
  C      0.993385   -4.370382    0.289641
  C      1.011267   -3.073664    0.950403
  C      1.764902   -1.990332    0.654148
  C      1.638297   -0.749162    1.440710
  O      0.822279   -0.600198    2.345375
  C      2.585673    0.393973    1.054236
  C      2.070774    1.081095   -0.221134
  O      2.646087    0.915962   -1.291234
  C      0.837316    1.874459   -0.068968
  C      0.321359    2.557514   -1.116272
  C     -0.874630    3.383525   -1.156686
  C     -1.194884    4.053239   -2.345303
  C     -2.327988    4.863726   -2.424531
  C     -3.165193    5.021612   -1.323735
  O     -4.281906    5.797620   -1.337258
  C     -2.863989    4.346416   -0.110161
  O     -3.746039    4.557780    0.903801
  C     -3.502150    3.910515    2.143487
  C     -1.733844    3.544037   -0.041521
  C      1.730065   -4.655358   -0.870991
  C      1.671687   -5.920353   -1.449115
  C      0.885005   -6.930012   -0.892414
  O      0.795656   -8.181309   -1.418883
  H     -0.763857   -7.230412    2.772857
  H     -2.141856   -6.709831    1.756940
  H     -1.893815   -8.444563    2.107305
  H     -0.381681   -5.176318    1.737751
  H      0.337093   -2.955327    1.799309
  H      2.485402   -1.991551   -0.159643
  H      3.590736    0.020252    0.840056
  H      2.603836    1.100127    1.889612
  H      0.373899    1.880314    0.914137
  H      0.881020    2.479894   -2.048817
  H     -0.552163    3.940813   -3.214115
  H     -2.568813    5.381630   -3.351420
  H     -4.374304    6.196329   -2.217193
  H     -2.541802    4.220536    2.576964
  H     -4.314799    4.216813    2.804475
  H     -3.510841    2.817581    2.035601
  H     -1.506907    3.018821    0.878170
  H      2.340785   -3.886951   -1.333867
  H      2.241275   -6.134693   -2.352040
  H      1.357927   -8.229042   -2.208386

----------------------------
CARTESIAN COORDINATES (A.U.)
----------------------------
  NO LB      ZA    FRAG     MASS         X           Y           Z
   0 C     6.0000    0    12.011   -2.627534  -14.165906    3.610526
   1 O     8.0000    0    15.999   -1.152301  -14.562319    1.407441
   2 C     6.0000    0    12.011    0.245373  -12.592716    0.520450
   3 C     6.0000    0    12.011    0.362818  -10.196650    1.594742
   4 C     6.0000    0    12.011    1.877225   -8.258826    0.547343
   5 C     6.0000    0    12.011    1.911018   -5.808384    1.796002
   6 C     6.0000    0    12.011    3.335182   -3.761183    1.236160
   7 C     6.0000    0    12.011    3.095933   -1.415710    2.722547
   8 O     8.0000    0    15.999    1.553881   -1.134210    4.432117
   9 C     6.0000    0    12.011    4.886214    0.744501    1.992217
  10 C     6.0000    0    12.011    3.913196    2.042974   -0.417883
  11 O     8.0000    0    15.999    5.000381    1.730918   -2.440079
  12 C     6.0000    0    12.011    1.582298    3.542215   -0.130330
  13 C     6.0000    0    12.011    0.607281    4.833001   -2.109448
  14 C     6.0000    0    12.011   -1.652811    6.393936   -2.185819
  15 C     6.0000    0    12.011   -2.258003    7.659513   -4.431980
  16 C     6.0000    0    12.011   -4.399260    9.191111   -4.581701
  17 C     6.0000    0    12.011   -5.981348    9.489471   -2.501497
  18 O     8.0000    0    15.999   -8.091630   10.955915   -2.527051
  19 C     6.0000    0    12.011   -5.412156    8.213536   -0.208174
  20 O     8.0000    0    15.999   -7.078988    8.612956    1.707937
  21 C     6.0000    0    12.011   -6.618104    7.389803    4.050604
  22 C     6.0000    0    12.011   -3.276490    6.697260   -0.078463
  23 C     6.0000    0    12.011    3.269348   -8.797352   -1.645934
  24 C     6.0000    0    12.011    3.159031  -11.187846   -2.738430
  25 C     6.0000    0    12.011    1.672417  -13.095825   -1.686418
  26 O     8.0000    0    15.999    1.503572  -15.460434   -2.681299
  27 H     1.0000    0     1.008   -1.443480  -13.663498    5.239941
  28 H     1.0000    0     1.008   -4.047521  -12.679744    3.320136
  29 H     1.0000    0     1.008   -3.578792  -15.957911    3.982230
  30 H     1.0000    0     1.008   -0.721272   -9.781823    3.283873
  31 H     1.0000    0     1.008    0.637013   -5.584760    3.400202
  32 H     1.0000    0     1.008    4.696728   -3.763486   -0.301682
  33 H     1.0000    0     1.008    6.785508    0.038271    1.587476
  34 H     1.0000    0     1.008    4.920536    2.078939    3.570849
  35 H     1.0000    0     1.008    0.706566    3.553279    1.727468
  36 H     1.0000    0     1.008    1.664887    4.686321   -3.871704
  37 H     1.0000    0     1.008   -1.043437    7.447057   -6.073798
  38 H     1.0000    0     1.008   -4.854354   10.169806   -6.333266
  39 H     1.0000    0     1.008   -8.266236   11.709365   -4.189887
  40 H     1.0000    0     1.008   -4.803310    7.975656    4.869757
  41 H     1.0000    0     1.008   -8.153788    7.968622    5.299689
  42 H     1.0000    0     1.008   -6.634528    5.324456    3.846728
  43 H     1.0000    0     1.008   -2.847642    5.704746    1.659500
  44 H     1.0000    0     1.008    4.423442   -7.345273   -2.520644
  45 H     1.0000    0     1.008    4.235396  -11.592890   -4.444711
  46 H     1.0000    0     1.008    2.566109  -15.550637   -4.173244

--------------------------------
INTERNAL COORDINATES (ANGSTROEM)
--------------------------------
 C      0   0   0     0.000000000000     0.00000000     0.00000000
 O      1   0   0     1.418653173511     0.00000000     0.00000000
 C      2   1   0     1.361495962731   117.97240801     0.00000000
 C      3   2   1     1.390943874986   125.53546827     0.10973876
 C      4   3   2     1.414560817358   121.73509060   179.78924614
 C      5   4   3     1.455473591701   118.35502597   180.45075431
 C      6   5   4     1.352531683234   128.38971498   175.05768538
 C      7   6   5     1.474860439257   120.62432202   179.69343773
 O      8   7   6     1.227394107085   123.52436284   356.48100368
 C      8   7   6     1.534157837752   116.08476561   177.42274467
 C     10   8   7     1.537474143149   109.58268252    77.37745764
 O     11  10   8     1.226119048432   120.44021502   252.85561816
 C     11  10   8     1.474449311829   115.78704156    70.19274635
 C     13  11  10     1.352634511363   120.72454969   177.77295377
 C     14  13  11     1.454069814235   128.47164047   179.89261968
 C     15  14  13     1.401388662670   118.88252457   177.20161456
 C     16  15  14     1.395382342930   120.75094933   180.46458724
 C     17  16  15     1.391974138255   120.62264974   359.89052965
 O     18  17  16     1.359934026062   123.41801803   179.92853858
 C     18  17  16     1.421047498648   119.60259285   359.77473900
 O     20  18  17     1.360442987401   115.16693426   180.40078565
 C     21  20  18     1.419596827535   117.94568103   179.95762401
 C     20  18  17     1.387714398773   119.31333743     0.29728473
 C      5   4   3     1.403914578413   118.29764301     0.51383172
 C     24   5   4     1.392066160827   120.38345952   359.65565179
 C     25  24   5     1.395777430346   121.01960841   359.96963986
 O     26  25  24     1.360476848675   123.22909652   180.05431050
 H      1   2   3     1.098522775606   111.52744393   298.86755385
 H      1   2   3     1.098519804134   111.55015820    61.10097601
 H      1   2   3     1.091483270812   105.86739824   179.98514297
 H      4   3   2     1.084554439182   119.84879701     0.00000000
 H      6   5   4     1.090484134249   116.26331015   355.51386942
 H      7   6   5     1.086911369089   122.17198144   359.44957524
 H     10   8   7     1.093476956321   111.23977479   318.84142492
 H     10   8   7     1.094000648029   107.38867738   197.46000718
 H     13  11  10     1.086868771219   116.93229703   357.79586698
 H     14  13  11     1.090360724093   115.49726419   359.56304398
 H     16  15  14     1.086537684154   119.57627494     0.36690397
 H     17  16  15     1.088734701353   120.28213508   179.91397910
 H     19  18  17     0.970459557226   108.76185253     0.04027999
 H     22  21  20     1.098308860199   111.48009704    60.84277050
 H     22  21  20     1.091385129633   105.84281017   179.75396170
 H     22  21  20     1.098280988319   111.50531836   298.68364604
 H     23  20  18     1.083135730922   119.53801483   180.68967255
 H     24   5   4     1.085210719079   120.27767484   178.84563621
 H     25  24   5     1.088873441081   120.08724237   179.70348030
 H     27  26  25     0.970433943445   108.78470792     0.26515397

---------------------------
INTERNAL COORDINATES (A.U.)
---------------------------
 C      0   0   0     0.000000000000     0.00000000     0.00000000
 O      1   0   0     2.680865976953     0.00000000     0.00000000
 C      2   1   0     2.572854502001   117.97240801     0.00000000
 C      3   2   1     2.628502991379   125.53546827     0.10973876
 C      4   3   2     2.673132544582   121.73509060   179.78924614
 C      5   4   3     2.750446483470   118.35502597   180.45075431
 C      6   5   4     2.555914468763   128.38971498   175.05768538
 C      7   6   5     2.787082315951   120.62432202   179.69343773
 O      8   7   6     2.319438720780   123.52436284   356.48100368
 C      8   7   6     2.899138159560   116.08476561   177.42274467
 C     10   8   7     2.905405068538   109.58268252    77.37745764
 O     11  10   8     2.317029209120   120.44021502   252.85561816
 C     11  10   8     2.786305397706   115.78704156    70.19274635
 C     13  11  10     2.556108785767   120.72454969   177.77295377
 C     14  13  11     2.747793728506   128.47164047   179.89261968
 C     15  14  13     2.648240779628   118.88252457   177.20161456
 C     16  15  14     2.636890480246   120.75094933   180.46458724
 C     17  16  15     2.630449906803   120.62264974   359.89052965
 O     18  17  16     2.569902869458   123.41801803   179.92853858
 C     18  17  16     2.685390595739   119.60259285   359.77473900
 O     20  18  17     2.570864667002   115.16693426   180.40078565
 C     21  20  18     2.682649224625   117.94568103   179.95762401
 C     20  18  17     2.622400165779   119.31333743     0.29728473
 C      5   4   3     2.653014068621   118.29764301     0.51383172
 C     24   5   4     2.630623804262   120.38345952   359.65565179
 C     25  24   5     2.637637087262   121.01960841   359.96963986
 O     26  25  24     2.570928655537   123.22909652   180.05431050
 H      1   2   3     2.075907197770   111.52744393   298.86755385
 H      1   2   3     2.075901582502   111.55015820    61.10097601
 H      1   2   3     2.062604461591   105.86739824   179.98514297
 H      4   3   2     2.049510867382   119.84879701     0.00000000
 H      6   5   4     2.060716367117   116.26331015   355.51386942
 H      7   6   5     2.053964819423   122.17198144   359.44957524
 H     10   8   7     2.066371981201   111.23977479   318.84142492
 H     10   8   7     2.067361615107   107.38867738   197.46000718
 H     13  11  10     2.053884321116   116.93229703   357.79586698
 H     14  13  11     2.060483155719   115.49726419   359.56304398
 H     16  15  14     2.053258657236   119.57627494     0.36690397
 H     17  16  15     2.057410418053   120.28213508   179.91397910
 H     19  18  17     1.833902787203   108.76185253     0.04027999
 H     22  21  20     2.075502956236   111.48009704    60.84277050
 H     22  21  20     2.062419001640   105.84281017   179.75396170
 H     22  21  20     2.075450286015   111.50531836   298.68364604
 H     23  20  18     2.046829897307   119.53801483   180.68967255
 H     24   5   4     2.050751056656   120.27767484   178.84563621
 H     25  24   5     2.057672598144   120.08724237   179.70348030
 H     27  26  25     1.833854384172   108.78470792     0.26515397

------------------------------------------------------------------------------
                   ___                                                        
                  /   \      - P O W E R E D   B Y -                         
                 /     \                                                     
                 |  |  |   _    _      __       _____    __    __             
                 |  |  |  | |  | |    /  \     |  _  \  |  |  /  |          
                  \  \/   | |  | |   /    \    | | | |  |  | /  /          
                 / \  \   | |__| |  /  /\  \   | |_| |  |  |/  /          
                |  |  |   |  __  | /  /__\  \  |    /   |      \           
                |  |  |   | |  | | |   __   |  |    \   |  |\   \          
                \     /   | |  | | |  |  |  |  | |\  \  |  | \   \       
                 \___/    |_|  |_| |__|  |__|  |_| \__\ |__|  \__/        
                                                                              
                      - O R C A' S   B I G   F R I E N D -                    
                                      &                                       
                       - I N T E G R A L  F E E D E R -                       
                                                                              
 v1 FN, 2020, v2 2021, v3 2022-2024                                           
------------------------------------------------------------------------------


----------------------
SHARK INTEGRAL PACKAGE
----------------------

Number of atoms                             ...     47
Number of basis functions                   ...    418
Number of shells                            ...    202
Maximum angular momentum                    ...      2
Integral batch strategy                     ... SHARK/LIBINT Hybrid
RI-J (if used) integral strategy            ... SPLIT-RIJ (Revised 2003 algorithm where possible)
Printlevel                                  ...      1
Contraction scheme used                     ... SEGMENTED contraction
Prescreening option                         ... SCHWARTZ
   Thresh                                   ... 2.500e-11
   Tcut                                     ... 2.500e-12
   Tpresel                                  ... 2.500e-12 
Coulomb Range Separation                    ... NOT USED
Exchange Range Separation                   ... NOT USED
Multipole approximations                    ... NOT USED
Finite Nucleus Model                        ... NOT USED
CABS basis                                  ... NOT available
Auxiliary Coulomb fitting basis             ... AVAILABLE
   # of basis functions in Aux-J            ...   1543
   # of shells in Aux-J                     ...    505
   Maximum angular momentum in Aux-J        ...      4
Auxiliary J/K fitting basis                 ... NOT available
Auxiliary Correlation fitting basis         ... NOT available
Auxiliary 'external' fitting basis          ... NOT available

Checking pre-screening integrals            ... done (  0.0 sec) Dimension = 202
   => SHARK Basis and OBASIS are compatible. Storing Pre-screening
Shell pair information
Shell pair cut-off parameter TPreSel        ...   2.5e-12
Total number of shell pairs                 ...     20503
Shell pairs after pre-screening             ...     10422
Total number of primitive shell pairs       ...    118482
Primitive shell pairs kept                  ...     33412
          la=0 lb=0:   3563 shell pairs
          la=1 lb=0:   3595 shell pairs
          la=1 lb=1:    917 shell pairs
          la=2 lb=0:   1436 shell pairs
          la=2 lb=1:    756 shell pairs
          la=2 lb=2:    155 shell pairs

Checking whether 4 symmetric matrices of dimension 418 fit in memory
:Max Core in MB      =   4096.00
 MB in use           =     16.48
 MB left             =   4079.52
 MB needed           =      2.67
 Data fit in memory  = YES
Calculating RI/J V-Matrix + Cholesky decomp.... done (  0.2 sec)
Calculating Nuclear repulsion               ... done (  0.0 sec) ENN=   2152.289946105783 Eh

Diagonalization of the overlap matrix:
Smallest eigenvalue                        ... 4.113e-04
Time for diagonalization                   ...    0.023 sec
Threshold for overlap eigenvalues          ... 1.000e-07
Number of eigenvalues below threshold      ... 0
Time for construction of square roots      ...    0.015 sec
Total time needed                          ...    0.040 sec

-------------------
DFT GRID GENERATION
-------------------

General Integration Accuracy     IntAcc      ... 4.388
Radial Grid Type                 RadialGrid  ... OptM3 with GC (2021)
Angular Grid (max. ang.)         AngularGrid ... 4 (Lebedev-302)
Angular grid pruning method      GridPruning ... 4 (adaptive)
Weight generation scheme         WeightScheme... mBecke (2022)
Basis function cutoff            BFCut       ... 1.0000e-11
Integration weight cutoff        WCut        ... 1.0000e-14
Partially contracted basis set               ... off
Rotationally invariant grid construction     ... off
Angular grids for H and He will be reduced by one unit

Total number of grid points                  ...   226272
Total number of batches                      ...     3559
Average number of points per batch           ...       63
Average number of grid points per atom       ...     4814

--------------------
COSX GRID GENERATION
--------------------

GRIDX 1
-------
General Integration Accuracy     IntAcc      ... 3.816
Radial Grid Type                 RadialGrid  ... OptM3 with GC (2021)
Angular Grid (max. ang.)         AngularGrid ... 1 (Lebedev-50)
Angular grid pruning method      GridPruning ... 4 (adaptive)
Weight generation scheme         WeightScheme... mBecke (2022)
Basis function cutoff            BFCut       ... 1.0000e-11
Integration weight cutoff        WCut        ... 1.0000e-14
Partially contracted basis set               ... on
Rotationally invariant grid construction     ... off
Angular grids for H and He will be reduced by one unit

Total number of grid points                  ...    28745
Total number of batches                      ...      251
Average number of points per batch           ...      114
Average number of grid points per atom       ...      612
UseSFitting                                  ... on

GRIDX 2
-------
General Integration Accuracy     IntAcc      ... 4.020
Radial Grid Type                 RadialGrid  ... OptM3 with GC (2021)
Angular Grid (max. ang.)         AngularGrid ... 2 (Lebedev-110)
Angular grid pruning method      GridPruning ... 4 (adaptive)
Weight generation scheme         WeightScheme... mBecke (2022)
Basis function cutoff            BFCut       ... 1.0000e-11
Integration weight cutoff        WCut        ... 1.0000e-14
Partially contracted basis set               ... on
Rotationally invariant grid construction     ... off
Angular grids for H and He will be reduced by one unit

Total number of grid points                  ...    62778
Total number of batches                      ...      517
Average number of points per batch           ...      121
Average number of grid points per atom       ...     1336
UseSFitting                                  ... on

GRIDX 3
-------
General Integration Accuracy     IntAcc      ... 4.338
Radial Grid Type                 RadialGrid  ... OptM3 with GC (2021)
Angular Grid (max. ang.)         AngularGrid ... 3 (Lebedev-194)
Angular grid pruning method      GridPruning ... 4 (adaptive)
Weight generation scheme         WeightScheme... mBecke (2022)
Basis function cutoff            BFCut       ... 1.0000e-11
Integration weight cutoff        WCut        ... 1.0000e-14
Partially contracted basis set               ... on
Rotationally invariant grid construction     ... off
Angular grids for H and He will be reduced by one unit

Total number of grid points                  ...   137486
Total number of batches                      ...     1097
Average number of points per batch           ...      125
Average number of grid points per atom       ...     2925
UseSFitting                                  ... on
Grids setup in   8.3 sec
Initializing property integral containers    ... done (  0.0 sec)

SHARK setup successfully completed in   8.9 seconds

Maximum memory used throughout the entire STARTUP-calculation: 91.6 MB
Occupation numbers will be reassigned to an Aufbau configuration
             **** ENERGY FILE WAS UPDATED (curcumin.en.tmp) ****
Finished Guess after   0.3 sec
Maximum memory used throughout the entire GUESS-calculation: 30.3 MB
----------------------------------------D-I-I-S--------------------------------------------
Iteration    Energy (Eh)           Delta-E    RMSDP     MaxDP     DIISErr   Damp  Time(sec)
-------------------------------------------------------------------------------------------
               ***  Starting incremental Fock matrix formation  ***
    1    -1262.7908502683239931     0.00e+00  1.77e-04  5.91e-03  2.63e-02  0.700  34.6
    2    -1262.7960430981052014    -5.19e-03  1.70e-04  5.69e-03  2.08e-02  0.700  13.5
                               ***Turning on AO-DIIS***
    3    -1262.8002238322455923    -4.18e-03  1.47e-04  4.82e-03  1.56e-02  0.700  13.3
    4    -1262.8033409707863939    -3.12e-03  3.82e-04  1.22e-02  1.12e-02  0.000  13.1
                              *** Initializing SOSCF ***
---------------------------------------S-O-S-C-F--------------------------------------
Iteration    Energy (Eh)           Delta-E    RMSDP     MaxDP     MaxGrad    Time(sec)
--------------------------------------------------------------------------------------
    5    -1262.8112158335875392    -7.87e-03  2.59e-05  6.61e-04  5.98e-04    14.4
               *** Restarting incremental Fock matrix formation ***
    6    -1262.8112261604173909    -1.03e-05  1.74e-05  4.99e-04  1.67e-04    33.9
    7    -1262.8112298077298874    -3.65e-06  9.64e-06  4.03e-04  5.08e-05    20.4
    8    -1262.8112291447591815     6.63e-07  6.11e-06  2.63e-04  1.06e-04    18.0
    9    -1262.8112300930683887    -9.48e-07  1.42e-06  6.54e-05  9.22e-06    16.8
   10    -1262.8112300773395873     1.57e-08  9.13e-07  4.50e-05  1.68e-05    12.9
   11    -1262.8112301100400146    -3.27e-08  1.80e-07  7.56e-06  1.06e-06    11.9
                  *** Gradient check signals convergence ***

               *****************************************************
               *                     SUCCESS                       *
               *           SCF CONVERGED AFTER  11 CYCLES          *
               *****************************************************

Recomputing exchange energy using gridx3       ... done (   57.409 sec)
Old exchange energy                            :    -33.083391002 Eh
New exchange energy                            :    -33.083458172 Eh
Exchange energy change after final integration :     -0.000067170 Eh
Total energy after final integration           :  -1262.811297282 Eh
             **** ENERGY FILE WAS UPDATED (curcumin.en.tmp) ****

----------------
TOTAL SCF ENERGY
----------------

Total Energy       :      -1262.81129728176552 Eh          -34362.84237 eV

Components:
Nuclear Repulsion  :       2152.28994610578275 Eh           58566.78691 eV
Electronic Energy  :      -3415.10117621731797 Eh          -92929.62746 eV
One Electron Energy:      -5997.95742603787949 Eh         -163212.71914 eV
Two Electron Energy:       2582.85624982056152 Eh           70283.09168 eV

Virial components:
Potential Energy   :      -2518.26433400846508 Eh          -68525.45630 eV
Kinetic Energy     :       1255.45303672669934 Eh           34162.61392 eV
Virial Ratio       :          2.00586104007064

DFT components:
N(Alpha)           :       96.999874060568 electrons
N(Beta)            :       96.999874060568 electrons
N(Total)           :      193.999748121136 electrons
E(X)               :     -131.495626194047 Eh       
E(C)               :       -7.826803207683 Eh       
E(XC)              :     -139.322429401730 Eh       

---------------
SCF CONVERGENCE
---------------

  Last Energy change         ...    3.2700e-08  Tolerance :   1.0000e-08
  Last MAX-Density change    ...    7.5636e-06  Tolerance :   1.0000e-07
  Last RMS-Density change    ...    1.8033e-07  Tolerance :   5.0000e-09
  Last DIIS Error            ...    5.9815e-04  Tolerance :   5.0000e-07
  Last Orbital Gradient      ...    1.0637e-06  Tolerance :   1.0000e-05
  Last Orbital Rotation      ...    5.2986e-06  Tolerance :   1.0000e-05


Total SCF time: 0 days 0 hours 4 min 29 sec 
Finished LeanSCF after 270.1 sec

Maximum memory used throughout the entire LEANSCF-calculation: 59.4 MB

-------------------------   --------------------
FINAL SINGLE POINT ENERGY     -1262.811297281766
-------------------------   --------------------

------------------------------------------------------------------------------
                         ORCA SCF GRADIENT CALCULATION
------------------------------------------------------------------------------

Nuc. rep. gradient        (SHARK) ... done (  0.0 sec)
HCore & Overlap gradient  (SHARK) ... done (  2.1 sec)
Split-RIJ-J gradient      (SHARK) ... done ( 10.5 sec)
COSX-gradient                     ... done (116.6 sec)
XC gradient                       ... done ( 24.3 sec)

------------------
CARTESIAN GRADIENT
------------------

   1   C   :   -0.000299780   -0.000398036    0.000135056
   2   O   :    0.000077256    0.000053863   -0.000037442
   3   C   :    0.000109759    0.000285978    0.000174894
   4   C   :   -0.000177534   -0.000075192    0.000243439
   5   C   :    0.000057142    0.000793895   -0.000046369
   6   C   :   -0.000094755   -0.001597824   -0.000476584
   7   C   :    0.000361176    0.000893103    0.000779704
   8   C   :   -0.000989045    0.000263033   -0.002575491
   9   O   :   -0.000001248    0.000069593    0.000991059
  10   C   :    0.001285665   -0.000556035    0.001433957
  11   C   :    0.000441207    0.002557253    0.001045806
  12   O   :   -0.000332746   -0.001232089   -0.000572257
  13   C   :    0.000534274   -0.001656542   -0.000133592
  14   C   :   -0.001437572    0.001230425   -0.000168902
  15   C   :    0.000877157   -0.000544730   -0.000766072
  16   C   :    0.000204799   -0.000262878    0.000449684
  17   C   :   -0.000313395    0.000175129    0.000063379
  18   C   :   -0.000042091    0.000114393   -0.000276485
  19   O   :    0.000607564   -0.000082350   -0.000635485
  20   C   :    0.000466093   -0.000389015    0.000333921
  21   O   :    0.000006982   -0.000003386   -0.000154723
  22   C   :   -0.000333669    0.000143096    0.000396242
  23   C   :   -0.000578505    0.000534433    0.000710151
  24   C   :    0.000103218   -0.000387117   -0.000010704
  25   C   :    0.000059538   -0.000148877   -0.000059287
  26   C   :   -0.000062455    0.000009593    0.000017376
  27   O   :    0.000400561    0.000543106   -0.000316267
  28   H   :    0.000002974    0.000138912   -0.000091184
  29   H   :    0.000145105    0.000072316    0.000004317
  30   H   :   -0.000020444    0.000063764    0.000045605
  31   H   :   -0.000048760   -0.000030250   -0.000046416
  32   H   :    0.000179878    0.000463260    0.000153645
  33   H   :    0.000052978   -0.000362965    0.000151384
  34   H   :   -0.000213997    0.000086305   -0.000677280
  35   H   :   -0.000512718   -0.000156887   -0.000085832
  36   H   :   -0.000080698    0.000177568   -0.000152505
  37   H   :    0.000428687   -0.000206206    0.000171831
  38   H   :    0.000004334   -0.000094077   -0.000018335
  39   H   :   -0.000235608    0.000066396    0.000132539
  40   H   :   -0.000276870    0.000116698    0.000156479
  41   H   :    0.000051462   -0.000137128   -0.000130018
  42   H   :    0.000051180   -0.000040730    0.000011933
  43   H   :    0.000137250    0.000028664   -0.000062288
  44   H   :   -0.000156859   -0.000233976   -0.000125432
  45   H   :   -0.000236291    0.000212481   -0.000005493
  46   H   :   -0.000136931   -0.000208292   -0.000005806
  47   H   :   -0.000064266   -0.000288677    0.000027845

Difference to translation invariance:
           :   -0.0000000001   -0.0000000001   -0.0000000000

Difference to rotation invariance:
           :   -0.0001101116    0.0001127266    0.0001458781

Norm of the Cartesian gradient     ...    0.0065157209
RMS gradient                       ...    0.0005487227
MAX gradient                       ...    0.0025754908

-------
TIMINGS
-------

Total SCF gradient time     ....      153.561 sec

Densities                   ....       0.007 sec  (  0.0%)
One electron gradient       ....       2.140 sec  (  1.4%)
RI-J Coulomb gradient       ....      10.495 sec  (  6.8%)
COSX gradient               ....     116.590 sec  ( 75.9%)
XC gradient                 ....      24.329 sec  ( 15.8%)

Maximum memory used throughout the entire SCFGRAD-calculation: 66.8 MB
------------------------------------------------------------------------------
                         ORCA GEOMETRY RELAXATION STEP
------------------------------------------------------------------------------

Reading the OPT-File                    .... done
Getting information on internals        .... done
Copying old internal coords+grads       .... done
Making the new internal coordinates     .... (2022 redundants) done
Validating the new internal coordinates .... (2022 redundants) done
Calculating the B-matrix                .... done
Calculating the G,G- and P matrices     .... done
Transforming gradient to internals      .... done
Projecting the internal gradient        .... done
Number of atoms                         ....  47
Number of internal coordinates          .... 220
Current Energy                          .... -1262.811297282 Eh
Current gradient norm                   ....     0.006515721 Eh/bohr
Maximum allowed component of the step   ....  0.300
Current trust radius                    ....  0.700
Updating the Hessian (BFGS)             .... done
Forming the augmented Hessian           .... done
Diagonalizing the augmented Hessian     .... done
Last element of RFO vector              ....  0.980768396
Lowest eigenvalues of augmented Hessian:
 -0.000332232  0.003258085  0.012674627  0.012711803  0.012812536
Length of the computed step             ....  0.199002321
The final length of the internal step   ....  0.199002321
Converting the step to Cartesian space:
 Initial RMS(Int)=    0.0134167337
Transforming coordinates:
 Iter   0:  RMS(Cart)=    0.0977104236 RMS(Int)=    1.8914050785
 Iter   5:  RMS(Cart)=    0.0000000152 RMS(Int)=    0.0000000065
done
Storing new coordinates                 .... done
The predicted energy change is          ....    -0.000172694
Previously predicted energy change      ....    -0.000206452
Actually observed energy change         ....    -0.000214212
Ratio of predicted to observed change   ....     1.037587513
New trust radius                        ....     0.700000000

                                .--------------------.
          ----------------------|Geometry convergence|-------------------------
          Item                value                   Tolerance       Converged
          ---------------------------------------------------------------------
          Energy change      -0.0002142118            0.0000050000      NO
          RMS gradient        0.0002612295            0.0001000000      NO
          MAX gradient        0.0011071376            0.0003000000      NO
          RMS step            0.0134167337            0.0020000000      NO
          MAX step            0.0556422946            0.0040000000      NO
          -------------------------------------------------------------------------
          ........................................................
          Max(Bonds)      0.0023      Max(Angles)    0.66
          Max(Dihed)        3.19      Max(Improp)    0.00
          ---------------------------------------------------------------------

The optimization has not yet converged - more geometry cycles are needed


    ---------------------------------------------------------------------------
                         Redundant Internal Coordinates
                            (Angstroem and degrees)

        Definition                    Value    dE/dq     Step     New-Value
    ----------------------------------------------------------------------------
     1. B(O   1,C   0)                1.4187  0.000152 -0.0004    1.4183   
     2. B(C   2,O   1)                1.3615  0.000125  0.0005    1.3620   
     3. B(C   3,C   2)                1.3909 -0.000085  0.0009    1.3918   
     4. B(C   4,C   3)                1.4146  0.000139 -0.0005    1.4141   
     5. B(C   5,C   4)                1.4555 -0.000577  0.0017    1.4571   
     6. B(C   6,C   5)                1.3525  0.000340 -0.0007    1.3518   
     7. B(C   7,C   6)                1.4749 -0.000329  0.0016    1.4764   
     8. B(O   8,C   7)                1.2274  0.000740 -0.0002    1.2272   
     9. B(C   9,C   7)                1.5342 -0.000147 -0.0020    1.5321   
    10. B(C  10,C   9)                1.5375 -0.000123 -0.0020    1.5355   
    11. B(O  11,C  10)                1.2261  0.000509 -0.0002    1.2259   
    12. B(C  12,C  10)                1.4744 -0.000526  0.0019    1.4764   
    13. B(C  13,C  12)                1.3526  0.000345 -0.0008    1.3519   
    14. B(C  14,C  13)                1.4541 -0.000738  0.0019    1.4560   
    15. B(C  15,C  14)                1.4014 -0.000358  0.0009    1.4022   
    16. B(C  16,C  15)                1.3954  0.000194 -0.0002    1.3952   
    17. B(C  17,C  16)                1.3920 -0.000540  0.0013    1.3933   
    18. B(O  18,C  17)                1.3599 -0.000248  0.0007    1.3606   
    19. B(C  19,C  17)                1.4210  0.000494 -0.0021    1.4190   
    20. B(O  20,C  19)                1.3604  0.000100  0.0005    1.3609   
    21. B(C  21,O  20)                1.4196  0.000174 -0.0005    1.4191   
    22. B(C  22,C  19)                1.3877 -0.000288  0.0009    1.3887   
    23. B(C  22,C  14)                1.4169  0.000762 -0.0016    1.4153   
    24. B(C  23,C   4)                1.4039  0.000097  0.0000    1.4039   
    25. B(C  24,C  23)                1.3921  0.000009 -0.0003    1.3918   
    26. B(C  25,C  24)                1.3958 -0.000383  0.0014    1.3972   
    27. B(C  25,C   2)                1.4160  0.000282 -0.0023    1.4137   
    28. B(O  26,C  25)                1.3605 -0.000144  0.0006    1.3610   
    29. B(H  27,C   0)                1.0985 -0.000037 -0.0001    1.0985   
    30. B(H  28,C   0)                1.0985 -0.000048  0.0001    1.0986   
    31. B(H  29,C   0)                1.0915 -0.000037  0.0002    1.0917   
    32. B(H  30,C   3)                1.0846 -0.000019 -0.0001    1.0844   
    33. B(H  31,C   5)                1.0905  0.000059 -0.0003    1.0902   
    34. B(H  32,C   6)                1.0869 -0.000078  0.0002    1.0871   
    35. B(H  33,C   9)                1.0935 -0.000094  0.0005    1.0940   
    36. B(H  34,C   9)                1.0940 -0.000175  0.0006    1.0946   
    37. B(H  35,C  12)                1.0869 -0.000102  0.0004    1.0873   
    38. B(H  36,C  13)                1.0904  0.000088 -0.0004    1.0900   
    39. B(H  37,C  15)                1.0865  0.000027 -0.0000    1.0865   
    40. B(H  38,C  16)                1.0887 -0.000029 -0.0002    1.0885   
    41. B(H  39,O  18)                0.9705 -0.000067 -0.0001    0.9704   
    42. B(H  40,C  21)                1.0983 -0.000045  0.0000    1.0983   
    43. B(H  41,C  21)                1.0914 -0.000042  0.0003    1.0916   
    44. B(H  42,C  21)                1.0983 -0.000023 -0.0000    1.0983   
    45. B(H  43,C  22)                1.0831 -0.000026  0.0001    1.0833   
    46. B(H  44,C  23)                1.0852  0.000020  0.0001    1.0853   
    47. B(H  45,C  24)                1.0889 -0.000026 -0.0002    1.0887   
    48. B(H  46,O  26)                0.9704 -0.000045 -0.0001    0.9703   
    49. A(O   1,C   0,H  28)          111.55 -0.000134    0.00    111.55   
    50. A(H  27,C   0,H  28)          109.07 -0.000100    0.25    109.32   
    51. A(H  28,C   0,H  29)          109.37  0.000066   -0.16    109.21   
    52. A(H  27,C   0,H  29)          109.38  0.000079   -0.17    109.21   
    53. A(O   1,C   0,H  29)          105.87  0.000219    0.04    105.91   
    54. A(O   1,C   0,H  27)          111.53 -0.000114    0.01    111.54   
    55. A(C   0,O   1,C   2)          117.97  0.000009   -0.07    117.90   
    56. A(O   1,C   2,C   3)          125.54 -0.000057    0.02    125.55   
    57. A(O   1,C   2,C  25)          115.47  0.000015    0.05    115.53   
    58. A(C   3,C   2,C  25)          118.99  0.000042   -0.07    118.92   
    59. A(C   4,C   3,H  30)          118.42  0.000132   -0.09    118.32   
    60. A(C   2,C   3,H  30)          119.85  0.000037    0.04    119.89   
    61. A(C   2,C   3,C   4)          121.74 -0.000169    0.06    121.79   
    62. A(C   3,C   4,C  23)          118.30  0.000017   -0.02    118.28   
    63. A(C   3,C   4,C   5)          118.36 -0.000097   -0.10    118.26   
    64. A(C   5,C   4,C  23)          123.35  0.000080    0.11    123.46   
    65. A(C   4,C   5,H  31)          116.26  0.000416   -0.30    115.96   
    66. A(C   4,C   5,C   6)          128.39  0.000224    0.02    128.41   
    67. A(C   6,C   5,H  31)          115.35 -0.000640    0.28    115.63   
    68. A(C   5,C   6,H  32)          122.17 -0.000318    0.31    122.48   
    69. A(C   7,C   6,H  32)          117.20  0.000295   -0.19    117.01   
    70. A(C   5,C   6,C   7)          120.62  0.000023   -0.12    120.50   
    71. A(O   8,C   7,C   9)          120.38 -0.000445    0.15    120.54   
    72. A(C   6,C   7,C   9)          116.08  0.000413   -0.04    116.05   
    73. A(C   6,C   7,O   8)          123.52  0.000042   -0.17    123.35   
    74. A(H  33,C   9,H  34)          110.79  0.000347   -0.66    110.12   
    75. A(C   7,C   9,H  34)          107.39  0.000142    0.13    107.52   
    76. A(C   7,C   9,C  10)          109.58 -0.001107    0.66    110.24   
    77. A(C  10,C   9,H  34)          110.52  0.000148   -0.13    110.39   
    78. A(C   7,C   9,H  33)          111.24  0.000642   -0.21    111.03   
    79. A(C  10,C   9,H  33)          107.34 -0.000186    0.20    107.54   
    80. A(O  11,C  10,C  12)          123.71  0.000137   -0.14    123.57   
    81. A(C   9,C  10,C  12)          115.79  0.000214    0.08    115.87   
    82. A(C   9,C  10,O  11)          120.44 -0.000392    0.15    120.59   
    83. A(C  10,C  12,H  35)          116.93  0.000221   -0.17    116.76   
    84. A(C  13,C  12,H  35)          122.34 -0.000225    0.31    122.65   
    85. A(C  10,C  12,C  13)          120.72  0.000005   -0.14    120.59   
    86. A(C  14,C  13,H  36)          116.03  0.000246   -0.25    115.78   
    87. A(C  12,C  13,H  36)          115.50 -0.000756    0.32    115.81   
    88. A(C  12,C  13,C  14)          128.47  0.000510   -0.06    128.41   
    89. A(C  15,C  14,C  22)          118.35 -0.000029   -0.00    118.35   
    90. A(C  13,C  14,C  22)          122.77  0.000326    0.11    122.88   
    91. A(C  13,C  14,C  15)          118.88 -0.000298   -0.11    118.77   
    92. A(C  16,C  15,H  37)          119.67  0.000006   -0.07    119.61   
    93. A(C  14,C  15,H  37)          119.58 -0.000098    0.03    119.61   
    94. A(C  14,C  15,C  16)          120.75  0.000092    0.03    120.78   
    95. A(C  17,C  16,H  38)          119.10 -0.000274    0.24    119.33   
    96. A(C  15,C  16,H  38)          120.28  0.000289   -0.12    120.16   
    97. A(C  15,C  16,C  17)          120.62 -0.000015   -0.11    120.51   
    98. A(O  18,C  17,C  19)          116.98  0.000302    0.06    117.04   
    99. A(C  16,C  17,C  19)          119.60  0.000139    0.09    119.69   
   100. A(C  16,C  17,O  18)          123.42 -0.000441   -0.15    123.27   
   101. A(C  17,O  18,H  39)          108.76  0.000607   -0.12    108.65   
   102. A(O  20,C  19,C  22)          125.52  0.000054    0.01    125.53   
   103. A(C  17,C  19,C  22)          119.31 -0.000064   -0.01    119.30   
   104. A(C  17,C  19,O  20)          115.17  0.000010    0.00    115.17   
   105. A(C  19,O  20,C  21)          117.95  0.000028   -0.06    117.89   
   106. A(H  41,C  21,H  42)          109.44  0.000072   -0.17    109.27   
   107. A(H  40,C  21,H  42)          109.06 -0.000129    0.27    109.33   
   108. A(H  40,C  21,H  41)          109.44  0.000091   -0.19    109.25   
   109. A(O  20,C  21,H  41)          105.84  0.000187    0.05    105.90   
   110. A(O  20,C  21,H  40)          111.48 -0.000087   -0.00    111.48   
   111. A(O  20,C  21,H  42)          111.51 -0.000118    0.02    111.52   
   112. A(C  14,C  22,C  19)          121.36 -0.000124    0.02    121.38   
   113. A(C  19,C  22,H  43)          119.54  0.000081   -0.03    119.50   
   114. A(C  14,C  22,H  43)          119.10  0.000042    0.03    119.12   
   115. A(C   4,C  23,C  24)          120.38  0.000094    0.01    120.39   
   116. A(C  24,C  23,H  44)          119.33  0.000156   -0.17    119.16   
   117. A(C   4,C  23,H  44)          120.28 -0.000251    0.17    120.45   
   118. A(C  25,C  24,H  45)          118.89 -0.000198    0.19    119.08   
   119. A(C  23,C  24,H  45)          120.09  0.000303   -0.13    119.96   
   120. A(C  23,C  24,C  25)          121.02 -0.000106   -0.06    120.96   
   121. A(C  24,C  25,O  26)          123.23 -0.000425   -0.18    123.05   
   122. A(C   2,C  25,O  26)          117.20  0.000305    0.09    117.29   
   123. A(C   2,C  25,C  24)          119.57  0.000121    0.09    119.66   
   124. A(C  25,O  26,H  46)          108.78  0.000530   -0.08    108.70   
   125. D(C   2,O   1,C   0,H  27)    -61.13  0.000158   -0.15    -61.28   
   126. D(C   2,O   1,C   0,H  28)     61.10 -0.000148    0.19     61.29   
   127. D(C   2,O   1,C   0,H  29)    179.99 -0.000008    0.02    180.01   
   128. D(C   3,C   2,O   1,C   0)      0.11  0.000050   -0.19     -0.08   
   129. D(C  25,C   2,O   1,C   0)   -179.80  0.000083   -0.39   -180.19   
   130. D(H  30,C   3,C   2,C  25)    179.92 -0.000011    0.08    180.00   
   131. D(C   4,C   3,C   2,C  25)     -0.30 -0.000023    0.34      0.04   
   132. D(H  30,C   3,C   2,O   1)      0.01  0.000023   -0.12     -0.11   
   133. D(C   4,C   3,C   2,O   1)    179.79  0.000011    0.14    179.92   
   134. D(C  23,C   4,C   3,C   2)      0.51  0.000055   -0.55     -0.04   
   135. D(C  23,C   4,C   3,H  30)   -179.71  0.000044   -0.30   -180.00   
   136. D(C   5,C   4,C   3,H  30)      0.23  0.000068   -0.32     -0.09   
   137. D(C   5,C   4,C   3,C   2)   -179.55  0.000079   -0.57   -180.12   
   138. D(C   6,C   5,C   4,C   3)    175.06 -0.000124    3.19    178.25   
   139. D(C   6,C   5,C   4,C  23)     -5.01 -0.000099    3.17     -1.84   
   140. D(H  31,C   5,C   4,C   3)     -4.49 -0.000100    2.71     -1.77   
   141. D(H  31,C   5,C   4,C  23)    175.45 -0.000075    2.69    178.14   
   142. D(H  32,C   6,C   5,C   4)     -0.55 -0.000167    0.59      0.04   
   143. D(H  32,C   6,C   5,H  31)    179.00 -0.000187    1.05    180.05   
   144. D(C   7,C   6,C   5,H  31)     -0.76 -0.000123    0.63     -0.13   
   145. D(C   7,C   6,C   5,C   4)    179.69 -0.000103    0.16    179.86   
   146. D(C   9,C   7,C   6,H  32)     -2.35 -0.000322    0.84     -1.50   
   147. D(C   9,C   7,C   6,C   5)    177.42 -0.000385    1.25    178.67   
   148. D(O   8,C   7,C   6,H  32)    176.71  0.000407   -1.17    175.55   
   149. D(O   8,C   7,C   6,C   5)     -3.52  0.000344   -0.76     -4.28   
   150. D(H  34,C   9,C   7,C   6)   -162.54 -0.000170   -1.44   -163.98   
   151. D(H  33,C   9,C   7,O   8)    139.75  0.000027   -0.30    139.46   
   152. D(H  33,C   9,C   7,C   6)    -41.16  0.000736   -2.29    -43.45   
   153. D(C  10,C   9,C   7,O   8)   -101.71 -0.000512    0.24   -101.47   
   154. D(C  10,C   9,C   7,C   6)     77.38  0.000197   -1.75     75.62   
   155. D(O  11,C  10,C   9,C   7)   -107.14  0.000300   -2.54   -109.68   
   156. D(C  12,C  10,C   9,H  33)   -168.88 -0.000613    1.04   -167.85   
   157. D(C  12,C  10,C   9,C   7)     70.19 -0.000637    0.77     70.96   
   158. D(O  11,C  10,C   9,H  34)    134.70  0.000718   -3.04    131.67   
   159. D(O  11,C  10,C   9,H  33)     13.78  0.000324   -2.27     11.51   
   160. D(H  35,C  12,C  10,C   9)     -2.20  0.000441   -1.29     -3.49   
   161. D(H  35,C  12,C  10,O  11)    175.04 -0.000545    2.00    177.03   
   162. D(C  13,C  12,C  10,C   9)    177.77  0.000359   -0.86    176.92   
   163. D(C  13,C  12,C  10,O  11)     -4.99 -0.000628    2.42     -2.56   
   164. D(H  36,C  13,C  12,H  35)    179.54 -0.000140    1.15    180.69   
   165. D(H  36,C  13,C  12,C  10)     -0.44 -0.000053    0.70      0.26   
   166. D(C  14,C  13,C  12,H  35)     -0.13 -0.000062    0.52      0.39   
   167. D(C  14,C  13,C  12,C  10)    179.89  0.000024    0.07    179.96   
   168. D(C  22,C  14,C  13,C  12)     -2.69 -0.000051    2.74      0.05   
   169. D(C  22,C  14,C  13,H  36)    177.64  0.000029    2.11    179.75   
   170. D(C  15,C  14,C  13,C  12)    177.20 -0.000096    3.00    180.20   
   171. D(C  15,C  14,C  13,H  36)     -2.47 -0.000015    2.36     -0.11   
   172. D(H  37,C  15,C  14,C  22)   -179.74  0.000048   -0.36   -180.09   
   173. D(H  37,C  15,C  14,C  13)      0.37  0.000090   -0.60     -0.23   
   174. D(C  16,C  15,C  14,C  22)      0.36  0.000048   -0.65     -0.29   
   175. D(C  16,C  15,C  14,C  13)   -179.54  0.000090   -0.89   -180.43   
   176. D(H  38,C  16,C  15,H  37)      0.01 -0.000004   -0.04     -0.02   
   177. D(H  38,C  16,C  15,C  14)    179.91 -0.000004    0.26    180.17   
   178. D(C  17,C  16,C  15,H  37)    179.99  0.000007    0.02    180.01   
   179. D(C  17,C  16,C  15,C  14)     -0.11  0.000007    0.31      0.20   
   180. D(C  19,C  17,C  16,H  38)    179.75 -0.000043    0.24    179.99   
   181. D(C  19,C  17,C  16,C  15)     -0.23 -0.000054    0.19     -0.04   
   182. D(O  18,C  17,C  16,H  38)     -0.09 -0.000028   -0.01     -0.10   
   183. D(O  18,C  17,C  16,C  15)    179.93 -0.000039   -0.06    179.87   
   184. D(H  39,O  18,C  17,C  19)   -179.81  0.000017   -0.18   -179.99   
   185. D(H  39,O  18,C  17,C  16)      0.04  0.000002    0.06      0.10   
   186. D(O  20,C  19,C  17,O  18)      0.26  0.000047   -0.31     -0.05   
   187. D(O  20,C  19,C  17,C  16)   -179.60  0.000063   -0.54   -180.14   
   188. D(C  22,C  19,C  17,O  18)   -179.85  0.000028   -0.10   -179.94   
   189. D(C  22,C  19,C  17,C  16)      0.30  0.000043   -0.33     -0.03   
   190. D(C  21,O  20,C  19,C  22)      0.07 -0.000014   -0.03      0.04   
   191. D(C  21,O  20,C  19,C  17)    179.96 -0.000034    0.20    180.16   
   192. D(H  42,C  21,O  20,C  19)    -61.32  0.000123   -0.08    -61.39   
   193. D(H  41,C  21,O  20,C  19)    179.75 -0.000013    0.09    179.85   
   194. D(H  40,C  21,O  20,C  19)     60.84 -0.000189    0.28     61.13   
   195. D(H  43,C  22,C  19,O  20)      0.57  0.000088   -0.46      0.12   
   196. D(H  43,C  22,C  19,C  17)   -179.31  0.000109   -0.70   -180.01   
   197. D(C  14,C  22,C  19,O  20)    179.85 -0.000009    0.22    180.06   
   198. D(C  14,C  22,C  19,C  17)     -0.04  0.000013   -0.02     -0.06   
   199. D(H  43,C  22,C  14,C  15)    178.99 -0.000153    1.17    180.16   
   200. D(H  43,C  22,C  14,C  13)     -1.12 -0.000198    1.42      0.30   
   201. D(C  19,C  22,C  14,C  15)     -0.29 -0.000057    0.50      0.22   
   202. D(C  19,C  22,C  14,C  13)    179.61 -0.000102    0.75    180.36   
   203. D(H  44,C  23,C   4,C   5)     -1.09 -0.000158    1.02     -0.07   
   204. D(H  44,C  23,C   4,C   3)    178.85 -0.000132    1.00    179.84   
   205. D(C  24,C  23,C   4,C   5)    179.72 -0.000071    0.41    180.13   
   206. D(C  24,C  23,C   4,C   3)     -0.34 -0.000046    0.39      0.05   
   207. D(H  45,C  24,C  23,H  44)      0.51  0.000056   -0.32      0.19   
   208. D(H  45,C  24,C  23,C   4)    179.70 -0.000033    0.29    179.99   
   209. D(C  25,C  24,C  23,H  44)   -179.23  0.000093   -0.63   -179.86   
   210. D(C  25,C  24,C  23,C   4)     -0.03  0.000004   -0.02     -0.05   
   211. D(O  26,C  25,C  24,H  45)      0.32  0.000046   -0.26      0.06   
   212. D(O  26,C  25,C  24,C  23)   -179.95  0.000011    0.05   -179.90   
   213. D(C   2,C  25,C  24,H  45)   -179.49  0.000065   -0.51   -179.99   
   214. D(C   2,C  25,C  24,C  23)      0.25  0.000030   -0.20      0.05   
   215. D(O  26,C  25,C   2,C   3)   -179.90 -0.000001   -0.19   -180.09   
   216. D(O  26,C  25,C   2,O   1)      0.02 -0.000031   -0.01      0.01   
   217. D(C  24,C  25,C   2,C   3)     -0.09 -0.000020    0.04     -0.04   
   218. D(C  24,C  25,C   2,O   1)    179.83 -0.000051    0.22    180.06   
   219. D(H  46,O  26,C  25,C  24)      0.27  0.000054   -0.25      0.02   
   220. D(H  46,O  26,C  25,C   2)   -179.93  0.000034   -0.01   -179.93   
    ----------------------------------------------------------------------------

Geometry step timings:
Preparation and reading OPT file:      0.001 s ( 4.167 %)
Internal coordinates            :      0.000 s ( 0.000 %)
B/P matrices and projection     :      0.008 s (33.333 %)
Hessian update/contruction      :      0.003 s (12.500 %)
Making the step                 :      0.006 s (25.000 %)
Converting the step to Cartesian:      0.001 s ( 4.167 %)
Storing new data                :      0.000 s ( 0.000 %)
Checking convergence            :      0.001 s ( 4.167 %)
Final printing                  :      0.004 s (16.667 %)
Total time                      :      0.024 s

Time for energy+gradient        :    433.184 s
Time for complete geometry iter :    433.309 s

         *************************************************************
         *                GEOMETRY OPTIMIZATION CYCLE   8            *
         *************************************************************
---------------------------------
CARTESIAN COORDINATES (ANGSTROEM)
---------------------------------
  C     -1.476842   -7.452754    1.821882
  O     -0.669935   -7.674235    0.676755
  C      0.112222   -6.648340    0.240088
  C      0.191146   -5.386488    0.822025
  C      1.034266   -4.377500    0.301674
  C      1.054863   -3.083000    0.970349
  C      1.799440   -1.995010    0.671482
  C      1.677227   -0.760365    1.471869
  O      0.862773   -0.622464    2.379365
  C      2.591209    0.399416    1.063324
  C      2.061597    1.069233   -0.212814
  O      2.660621    0.947849   -1.275488
  C      0.821934    1.856305   -0.059883
  C      0.306169    2.537813   -1.107293
  C     -0.894902    3.359755   -1.148629
  C     -1.248473    3.977974   -2.356553
  C     -2.395355    4.767377   -2.445690
  C     -3.210015    4.959624   -1.331900
  O     -4.338511    5.719390   -1.354777
  C     -2.869958    4.346551   -0.098212
  O     -3.726903    4.597948    0.928676
  C     -3.439705    4.015735    2.190599
  C     -1.726892    3.561752   -0.021647
  C      1.805872   -4.675148   -0.832794
  C      1.734268   -5.933797   -1.422527
  C      0.898568   -6.925049   -0.901695
  O      0.796972   -8.169871   -1.442537
  H     -0.867751   -7.215893    2.704775
  H     -2.202909   -6.645596    1.654001
  H     -2.012967   -8.387767    1.995649
  H     -0.405117   -5.157346    1.698349
  H      0.383393   -2.975271    1.822413
  H      2.504571   -1.979393   -0.155776
  H      3.604850    0.045468    0.853497
  H      2.606166    1.115026    1.891502
  H      0.355535    1.849233    0.922234
  H      0.858481    2.458187   -2.043630
  H     -0.623584    3.838018   -3.234283
  H     -2.661792    5.240313   -3.389235
  H     -4.454041    6.076447   -2.249651
  H     -2.474043    4.362116    2.582827
  H     -4.238109    4.342737    2.859417
  H     -3.438110    2.918768    2.137247
  H     -1.464143    3.092246    0.918559
  H      2.463070   -3.926181   -1.262955
  H      2.335591   -6.157028   -2.302192
  H      1.385153   -8.223596   -2.212402

----------------------------
CARTESIAN COORDINATES (A.U.)
----------------------------
  NO LB      ZA    FRAG     MASS         X           Y           Z
   0 C     6.0000    0    12.011   -2.790826  -14.083664    3.442858
   1 O     8.0000    0    15.999   -1.265994  -14.502203    1.278882
   2 C     6.0000    0    12.011    0.212068  -12.563543    0.453700
   3 C     6.0000    0    12.011    0.361214  -10.178987    1.553402
   4 C     6.0000    0    12.011    1.954480   -8.272275    0.570081
   5 C     6.0000    0    12.011    1.993403   -5.826025    1.833694
   6 C     6.0000    0    12.011    3.400449   -3.770023    1.268917
   7 C     6.0000    0    12.011    3.169500   -1.436882    2.781430
   8 O     8.0000    0    15.999    1.630404   -1.176286    4.496349
   9 C     6.0000    0    12.011    4.896675    0.754787    2.009391
  10 C     6.0000    0    12.011    3.895853    2.020558   -0.402160
  11 O     8.0000    0    15.999    5.027845    1.791174   -2.410323
  12 C     6.0000    0    12.011    1.553230    3.507908   -0.113162
  13 C     6.0000    0    12.011    0.578575    4.795771   -2.092481
  14 C     6.0000    0    12.011   -1.691120    6.349017   -2.170595
  15 C     6.0000    0    12.011   -2.359272    7.517282   -4.453239
  16 C     6.0000    0    12.011   -4.526565    9.009038   -4.621684
  17 C     6.0000    0    12.011   -6.066049    9.372330   -2.516927
  18 O     8.0000    0    15.999   -8.198598   10.808081   -2.560158
  19 C     6.0000    0    12.011   -5.423435    8.213792   -0.185594
  20 O     8.0000    0    15.999   -7.042825    8.688863    1.754943
  21 C     6.0000    0    12.011   -6.500100    7.588639    4.139632
  22 C     6.0000    0    12.011   -3.263354    6.730736   -0.040907
  23 C     6.0000    0    12.011    3.412603   -8.834749   -1.573753
  24 C     6.0000    0    12.011    3.277291  -11.213250   -2.688186
  25 C     6.0000    0    12.011    1.698047  -13.086446   -1.703956
  26 O     8.0000    0    15.999    1.506059  -15.438819   -2.726001
  27 H     1.0000    0     1.008   -1.639812  -13.636062    5.111284
  28 H     1.0000    0     1.008   -4.162894  -12.558356    3.125609
  29 H     1.0000    0     1.008   -3.803956  -15.850583    3.771230
  30 H     1.0000    0     1.008   -0.765560   -9.745971    3.209415
  31 H     1.0000    0     1.008    0.724508   -5.622447    3.443862
  32 H     1.0000    0     1.008    4.732954   -3.740510   -0.294375
  33 H     1.0000    0     1.008    6.812180    0.085921    1.612876
  34 H     1.0000    0     1.008    4.924939    2.107095    3.574420
  35 H     1.0000    0     1.008    0.671864    3.494543    1.742770
  36 H     1.0000    0     1.008    1.622295    4.645300   -3.861901
  37 H     1.0000    0     1.008   -1.178403    7.252803   -6.111908
  38 H     1.0000    0     1.008   -5.030059    9.902756   -6.404727
  39 H     1.0000    0     1.008   -8.416918   11.482821   -4.251224
  40 H     1.0000    0     1.008   -4.675264    8.243205    4.880836
  41 H     1.0000    0     1.008   -8.008866    8.206583    5.403516
  42 H     1.0000    0     1.008   -6.497086    5.515672    4.038812
  43 H     1.0000    0     1.008   -2.766830    5.843499    1.735824
  44 H     1.0000    0     1.008    4.654527   -7.419407   -2.386638
  45 H     1.0000    0     1.008    4.413628  -11.635097   -4.350512
  46 H     1.0000    0     1.008    2.617559  -15.540343   -4.180833

--------------------------------
INTERNAL COORDINATES (ANGSTROEM)
--------------------------------
 C      0   0   0     0.000000000000     0.00000000     0.00000000
 O      1   0   0     1.418261559295     0.00000000     0.00000000
 C      2   1   0     1.361950157301   117.90323598     0.00000000
 C      3   2   1     1.391816101038   125.55106193   359.92005685
 C      4   3   2     1.414098115628   121.79281465   179.92433855
 C      5   4   3     1.457148283276   118.25808211   179.87905282
 C      6   5   4     1.351827640011   128.41291506   178.24494330
 C      7   6   5     1.476449734825   120.50250572   179.85472550
 O      8   7   6     1.227151941738   123.35336457   355.70561054
 C      8   7   6     1.532110883015   116.04483218   178.68178135
 C     10   8   7     1.535471167410   110.24744920    75.63287404
 O     11  10   8     1.225903995108   120.57786340   250.34842727
 C     11  10   8     1.476358235441   115.85463300    70.92712733
 C     13  11  10     1.351863829894   120.58752248   176.87675825
 C     14  13  11     1.455977217500   128.41231403   179.95912190
 C     15  14  13     1.402243438206   118.77340086   180.19778328
 C     16  15  14     1.395149107979   120.78191318   179.57482320
 C     17  16  15     1.393253927884   120.50844350     0.20409227
 O     18  17  16     1.360615048128   123.26927623   179.86547236
 C     18  17  16     1.418972172144   119.68870560   359.95940023
 O     20  18  17     1.360901840594   115.17084041   179.85837982
 C     21  20  18     1.419121405505   117.88888454   180.16069367
 C     20  18  17     1.388658261338   119.29971782   359.96873615
 C      5   4   3     1.403918715864   118.27892851   359.96246344
 C     24   5   4     1.391800467412   120.38774791     0.04488741
 C     25  24   5     1.397226485197   120.95713818   359.94599906
 O     26  25  24     1.361034303058   123.05113244   180.10332045
 H      1   2   3     1.098450921164   111.54098486   298.71939722
 H      1   2   3     1.098572240429   111.55383945    61.29321483
 H      1   2   3     1.091730557052   105.91202138   180.00887673
 H      4   3   2     1.084426228403   119.88560415   359.89070865
 H      6   5   4     1.090179225953   115.96001778   358.22938499
 H      7   6   5     1.087110704376   122.48374149     0.03625138
 H     10   8   7     1.093972874605   111.03715748   316.55663222
 H     10   8   7     1.094623347332   107.53457438   196.02489551
 H     13  11  10     1.087258641160   116.76263859   356.47158355
 H     14  13  11     1.090007167037   115.81161298     0.26311829
 H     16  15  14     1.086500551018   119.60974262   359.76990427
 H     17  16  15     1.088546999670   120.16006121   180.17193375
 H     19  18  17     0.970379037700   108.64583916     0.10109957
 H     22  21  20     1.098328583538   111.47544893    61.12735857
 H     22  21  20     1.091649171927   105.89614809   179.84559363
 H     22  21  20     1.098264793461   111.52303313   298.60764248
 H     23  20  18     1.083263098529   119.50219487   179.99455525
 H     24   5   4     1.085309851971   120.44951866   179.84394811
 H     25  24   5     1.088684392105   119.95917460   179.99017216
 H     27  26  25     0.970326818293   108.70363396     0.00000000

---------------------------
INTERNAL COORDINATES (A.U.)
---------------------------
 C      0   0   0     0.000000000000     0.00000000     0.00000000
 O      1   0   0     2.680125933336     0.00000000     0.00000000
 C      2   1   0     2.573712805350   117.90323598     0.00000000
 C      3   2   1     2.630151259745   125.55106193   359.92005685
 C      4   3   2     2.672258165031   121.79281465   179.92433855
 C      5   4   3     2.753611191905   118.25808211   179.87905282
 C      6   5   4     2.554584019887   128.41291506   178.24494330
 C      7   6   5     2.790085649320   120.50250572   179.85472550
 O      8   7   6     2.318981094594   123.35336457   355.70561054
 C      8   7   6     2.895269975698   116.04483218   178.68178135
 C     10   8   7     2.901619992937   110.24744920    75.63287404
 O     11  10   8     2.316622817234   120.57786340   250.34842727
 C     11  10   8     2.789912740542   115.85463300    70.92712733
 C     13  11  10     2.554652408854   120.58752248   176.87675825
 C     14  13  11     2.751398198303   128.41231403   179.95912190
 C     15  14  13     2.649856071298   118.77340086   180.19778328
 C     16  15  14     2.636449730065   120.78191318   179.57482320
 C     17  16  15     2.632868358711   120.50844350     0.20409227
 O     18  17  16     2.571189814653   123.26927623   179.86547236
 C     18  17  16     2.681468797007   119.68870560   359.95940023
 O     20  18  17     2.571731773871   115.17084041   179.85837982
 C     21  20  18     2.681750807189   117.88888454   180.16069367
 C     20  18  17     2.624183807536   119.29971782   359.96873615
 C      5   4   3     2.653021887269   118.27892851   359.96246344
 C     24   5   4     2.630121716472   120.38774791     0.04488741
 C     25  24   5     2.640375404083   120.95713818   359.94599906
 O     26  25  24     2.571982091652   123.05113244   180.10332045
 H      1   2   3     2.075771412554   111.54098486   298.71939722
 H      1   2   3     2.076000672738   111.55383945    61.29321483
 H      1   2   3     2.063071764862   105.91202138   180.00887673
 H      4   3   2     2.049268584124   119.88560415   359.89070865
 H      6   5   4     2.060140173941   115.96001778   358.22938499
 H      7   6   5     2.054341508524   122.48374149     0.03625138
 H     10   8   7     2.067309130942   111.03715748   316.55663222
 H     10   8   7     2.068538346254   107.53457438   196.02489551
 H     13  11  10     2.054621068532   116.76263859   356.47158355
 H     14  13  11     2.059815029712   115.81161298     0.26311829
 H     16  15  14     2.053188485779   119.60974262   359.76990427
 H     17  16  15     2.057055713278   120.16006121   180.17193375
 H     19  18  17     1.833750627351   108.64583916     0.10109957
 H     22  21  20     2.075540227944   111.47544893    61.12735857
 H     22  21  20     2.062917969263   105.89614809   179.84559363
 H     22  21  20     2.075419682169   111.52303313   298.60764248
 H     23  20  18     2.047070587203   119.50219487   179.99455525
 H     24   5   4     2.050938390672   120.44951866   179.84394811
 H     25  24   5     2.057315347353   119.95917460   179.99017216
 H     27  26  25     1.833651946972   108.70363396     0.00000000

------------------------------------------------------------------------------
                   ___                                                        
                  /   \      - P O W E R E D   B Y -                         
                 /     \                                                     
                 |  |  |   _    _      __       _____    __    __             
                 |  |  |  | |  | |    /  \     |  _  \  |  |  /  |          
                  \  \/   | |  | |   /    \    | | | |  |  | /  /          
                 / \  \   | |__| |  /  /\  \   | |_| |  |  |/  /          
                |  |  |   |  __  | /  /__\  \  |    /   |      \           
                |  |  |   | |  | | |   __   |  |    \   |  |\   \          
                \     /   | |  | | |  |  |  |  | |\  \  |  | \   \       
                 \___/    |_|  |_| |__|  |__|  |_| \__\ |__|  \__/        
                                                                              
                      - O R C A' S   B I G   F R I E N D -                    
                                      &                                       
                       - I N T E G R A L  F E E D E R -                       
                                                                              
 v1 FN, 2020, v2 2021, v3 2022-2024                                           
------------------------------------------------------------------------------


----------------------
SHARK INTEGRAL PACKAGE
----------------------

Number of atoms                             ...     47
Number of basis functions                   ...    418
Number of shells                            ...    202
Maximum angular momentum                    ...      2
Integral batch strategy                     ... SHARK/LIBINT Hybrid
RI-J (if used) integral strategy            ... SPLIT-RIJ (Revised 2003 algorithm where possible)
Printlevel                                  ...      1
Contraction scheme used                     ... SEGMENTED contraction
Prescreening option                         ... SCHWARTZ
   Thresh                                   ... 2.500e-11
   Tcut                                     ... 2.500e-12
   Tpresel                                  ... 2.500e-12 
Coulomb Range Separation                    ... NOT USED
Exchange Range Separation                   ... NOT USED
Multipole approximations                    ... NOT USED
Finite Nucleus Model                        ... NOT USED
CABS basis                                  ... NOT available
Auxiliary Coulomb fitting basis             ... AVAILABLE
   # of basis functions in Aux-J            ...   1543
   # of shells in Aux-J                     ...    505
   Maximum angular momentum in Aux-J        ...      4
Auxiliary J/K fitting basis                 ... NOT available
Auxiliary Correlation fitting basis         ... NOT available
Auxiliary 'external' fitting basis          ... NOT available

Checking pre-screening integrals            ... done (  0.0 sec) Dimension = 202
   => SHARK Basis and OBASIS are compatible. Storing Pre-screening
Shell pair information
Shell pair cut-off parameter TPreSel        ...   2.5e-12
Total number of shell pairs                 ...     20503
Shell pairs after pre-screening             ...     10411
Total number of primitive shell pairs       ...    118482
Primitive shell pairs kept                  ...     33380
          la=0 lb=0:   3563 shell pairs
          la=1 lb=0:   3587 shell pairs
          la=1 lb=1:    916 shell pairs
          la=2 lb=0:   1436 shell pairs
          la=2 lb=1:    754 shell pairs
          la=2 lb=2:    155 shell pairs

Checking whether 4 symmetric matrices of dimension 418 fit in memory
:Max Core in MB      =   4096.00
 MB in use           =     16.47
 MB left             =   4079.53
 MB needed           =      2.67
 Data fit in memory  = YES
Calculating RI/J V-Matrix + Cholesky decomp.... done (  0.2 sec)
Calculating Nuclear repulsion               ... done (  0.0 sec) ENN=   2151.540318507528 Eh

Diagonalization of the overlap matrix:
Smallest eigenvalue                        ... 4.107e-04
Time for diagonalization                   ...    0.023 sec
Threshold for overlap eigenvalues          ... 1.000e-07
Number of eigenvalues below threshold      ... 0
Time for construction of square roots      ...    0.014 sec
Total time needed                          ...    0.039 sec

-------------------
DFT GRID GENERATION
-------------------

General Integration Accuracy     IntAcc      ... 4.388
Radial Grid Type                 RadialGrid  ... OptM3 with GC (2021)
Angular Grid (max. ang.)         AngularGrid ... 4 (Lebedev-302)
Angular grid pruning method      GridPruning ... 4 (adaptive)
Weight generation scheme         WeightScheme... mBecke (2022)
Basis function cutoff            BFCut       ... 1.0000e-11
Integration weight cutoff        WCut        ... 1.0000e-14
Partially contracted basis set               ... off
Rotationally invariant grid construction     ... off
Angular grids for H and He will be reduced by one unit

Total number of grid points                  ...   226281
Total number of batches                      ...     3556
Average number of points per batch           ...       63
Average number of grid points per atom       ...     4814

--------------------
COSX GRID GENERATION
--------------------

GRIDX 1
-------
General Integration Accuracy     IntAcc      ... 3.816
Radial Grid Type                 RadialGrid  ... OptM3 with GC (2021)
Angular Grid (max. ang.)         AngularGrid ... 1 (Lebedev-50)
Angular grid pruning method      GridPruning ... 4 (adaptive)
Weight generation scheme         WeightScheme... mBecke (2022)
Basis function cutoff            BFCut       ... 1.0000e-11
Integration weight cutoff        WCut        ... 1.0000e-14
Partially contracted basis set               ... on
Rotationally invariant grid construction     ... off
Angular grids for H and He will be reduced by one unit

Total number of grid points                  ...    28737
Total number of batches                      ...      252
Average number of points per batch           ...      114
Average number of grid points per atom       ...      611
UseSFitting                                  ... on

GRIDX 2
-------
General Integration Accuracy     IntAcc      ... 4.020
Radial Grid Type                 RadialGrid  ... OptM3 with GC (2021)
Angular Grid (max. ang.)         AngularGrid ... 2 (Lebedev-110)
Angular grid pruning method      GridPruning ... 4 (adaptive)
Weight generation scheme         WeightScheme... mBecke (2022)
Basis function cutoff            BFCut       ... 1.0000e-11
Integration weight cutoff        WCut        ... 1.0000e-14
Partially contracted basis set               ... on
Rotationally invariant grid construction     ... off
Angular grids for H and He will be reduced by one unit

Total number of grid points                  ...    62756
Total number of batches                      ...      517
Average number of points per batch           ...      121
Average number of grid points per atom       ...     1335
UseSFitting                                  ... on

GRIDX 3
-------
General Integration Accuracy     IntAcc      ... 4.338
Radial Grid Type                 RadialGrid  ... OptM3 with GC (2021)
Angular Grid (max. ang.)         AngularGrid ... 3 (Lebedev-194)
Angular grid pruning method      GridPruning ... 4 (adaptive)
Weight generation scheme         WeightScheme... mBecke (2022)
Basis function cutoff            BFCut       ... 1.0000e-11
Integration weight cutoff        WCut        ... 1.0000e-14
Partially contracted basis set               ... on
Rotationally invariant grid construction     ... off
Angular grids for H and He will be reduced by one unit

Total number of grid points                  ...   137465
Total number of batches                      ...     1096
Average number of points per batch           ...      125
Average number of grid points per atom       ...     2925
UseSFitting                                  ... on
Grids setup in   8.4 sec
Initializing property integral containers    ... done (  0.0 sec)

SHARK setup successfully completed in   9.1 seconds

Maximum memory used throughout the entire STARTUP-calculation: 91.5 MB
Occupation numbers will be reassigned to an Aufbau configuration
             **** ENERGY FILE WAS UPDATED (curcumin.en.tmp) ****
Finished Guess after   0.2 sec
Maximum memory used throughout the entire GUESS-calculation: 30.3 MB
----------------------------------------D-I-I-S--------------------------------------------
Iteration    Energy (Eh)           Delta-E    RMSDP     MaxDP     DIISErr   Damp  Time(sec)
-------------------------------------------------------------------------------------------
               ***  Starting incremental Fock matrix formation  ***
    1    -1262.7978435373524917     0.00e+00  1.48e-04  4.61e-03  2.22e-02  0.700  34.3
    2    -1262.8012621279826817    -3.42e-03  1.42e-04  4.45e-03  1.75e-02  0.700  13.3
                               ***Turning on AO-DIIS***
    3    -1262.8040132711516890    -2.75e-03  1.21e-04  3.79e-03  1.32e-02  0.700  13.1
    4    -1262.8060644286515526    -2.05e-03  3.15e-04  9.67e-03  9.62e-03  0.000  12.9
                              *** Initializing SOSCF ***
---------------------------------------S-O-S-C-F--------------------------------------
Iteration    Energy (Eh)           Delta-E    RMSDP     MaxDP     MaxGrad    Time(sec)
--------------------------------------------------------------------------------------
    5    -1262.8112467410096542    -5.18e-03  2.09e-05  5.22e-04  4.95e-04    14.1
               *** Restarting incremental Fock matrix formation ***
    6    -1262.8112537366641845    -7.00e-06  1.48e-05  4.10e-04  1.38e-04    33.8
    7    -1262.8112564015568751    -2.66e-06  1.13e-05  5.46e-04  7.37e-05    19.0
    8    -1262.8112556409191711     7.61e-07  7.26e-06  3.26e-04  1.24e-04    18.1
    9    -1262.8112568117308001    -1.17e-06  1.15e-06  5.91e-05  8.09e-06    17.0
   10    -1262.8112568033930074     8.34e-09  7.32e-07  3.88e-05  1.48e-05    12.8
                 **** Energy Check signals convergence ****

               *****************************************************
               *                     SUCCESS                       *
               *           SCF CONVERGED AFTER  10 CYCLES          *
               *****************************************************

Recomputing exchange energy using gridx3       ... done (   57.629 sec)
Old exchange energy                            :    -33.083315517 Eh
New exchange energy                            :    -33.083353222 Eh
Exchange energy change after final integration :     -0.000037705 Eh
Total energy after final integration           :  -1262.811294525 Eh
             **** ENERGY FILE WAS UPDATED (curcumin.en.tmp) ****

----------------
TOTAL SCF ENERGY
----------------

Total Energy       :      -1262.81129452460914 Eh          -34362.84230 eV

Components:
Nuclear Repulsion  :       2151.54031850752790 Eh           58546.38851 eV
Electronic Energy  :      -3414.35157532748781 Eh          -92909.22978 eV
One Electron Energy:      -5996.44359440356038 Eh         -163171.52568 eV
Two Electron Energy:       2582.09201907607257 Eh           70262.29591 eV

Virial components:
Potential Energy   :      -2518.26215670476904 Eh          -68525.39705 eV
Kinetic Energy     :       1255.45086218016013 Eh           34162.55475 eV
Virial Ratio       :          2.00586278011046

DFT components:
N(Alpha)           :       96.999847771955 electrons
N(Beta)            :       96.999847771955 electrons
N(Total)           :      193.999695543909 electrons
E(X)               :     -131.495125527928 Eh       
E(C)               :       -7.826706486714 Eh       
E(XC)              :     -139.321832014641 Eh       

---------------
SCF CONVERGENCE
---------------

  Last Energy change         ...   -8.3378e-09  Tolerance :   1.0000e-08
  Last MAX-Density change    ...    3.8794e-05  Tolerance :   1.0000e-07
  Last RMS-Density change    ...    7.3241e-07  Tolerance :   5.0000e-09
  Last DIIS Error            ...    4.9539e-04  Tolerance :   5.0000e-07
  Last Orbital Gradient      ...    1.4797e-05  Tolerance :   1.0000e-05
  Last Orbital Rotation      ...    3.9294e-05  Tolerance :   1.0000e-05


Total SCF time: 0 days 0 hours 4 min 18 sec 
Finished LeanSCF after 258.2 sec

Maximum memory used throughout the entire LEANSCF-calculation: 59.4 MB

-------------------------   --------------------
FINAL SINGLE POINT ENERGY     -1262.811294524609
-------------------------   --------------------

------------------------------------------------------------------------------
                         ORCA SCF GRADIENT CALCULATION
------------------------------------------------------------------------------

Nuc. rep. gradient        (SHARK) ... done (  0.0 sec)
HCore & Overlap gradient  (SHARK) ... done (  2.1 sec)
Split-RIJ-J gradient      (SHARK) ... done ( 10.5 sec)
COSX-gradient                     ... done (113.9 sec)
XC gradient                       ... done ( 24.2 sec)

------------------
CARTESIAN GRADIENT
------------------

   1   C   :    0.000269408    0.000206101   -0.000067672
   2   O   :   -0.000189139   -0.000246907    0.000150239
   3   C   :    0.000498101   -0.000301910   -0.001104979
   4   C   :    0.000131510    0.000201540    0.000412543
   5   C   :    0.000063277   -0.000080339   -0.000321693
   6   C   :   -0.000041280    0.000379656    0.000645004
   7   C   :   -0.000603949   -0.000115765   -0.000572849
   8   C   :    0.002721600   -0.000286029    0.000780589
   9   O   :   -0.000941592    0.000171676   -0.000457493
  10   C   :   -0.000722059    0.001382331   -0.000743327
  11   C   :   -0.001859623   -0.003636772    0.000737322
  12   O   :    0.000827456    0.001203734   -0.000261911
  13   C   :    0.000070146    0.001287183   -0.000262817
  14   C   :    0.000733678    0.000131963   -0.000147446
  15   C   :   -0.000275149   -0.000234198    0.000374563
  16   C   :    0.000329699    0.000048277    0.000255500
  17   C   :   -0.000576185    0.000574160   -0.000996387
  18   C   :    0.000351701   -0.000869580    0.001758780
  19   O   :    0.000267635    0.000142502   -0.000742264
  20   C   :   -0.000149260    0.000069245   -0.000590589
  21   O   :   -0.000182830    0.000131511    0.000118969
  22   C   :    0.000257846   -0.000034952   -0.000202919
  23   C   :    0.000049566    0.000084973   -0.000196651
  24   C   :   -0.000261220   -0.000264275    0.000192356
  25   C   :    0.000653217   -0.000003846   -0.001031559
  26   C   :   -0.001626395    0.000264872    0.002105603
  27   O   :    0.000598166    0.000302815   -0.000551328
  28   H   :    0.000058897   -0.000293438   -0.000022893
  29   H   :   -0.000157664   -0.000129420   -0.000207241
  30   H   :   -0.000137162    0.000098937    0.000232802
  31   H   :    0.000138248    0.000110362   -0.000097875
  32   H   :   -0.000151657   -0.000062399   -0.000171799
  33   H   :   -0.000061507    0.000285946   -0.000067940
  34   H   :    0.000024537    0.000022617    0.000171584
  35   H   :    0.000253390   -0.000233415    0.000254091
  36   H   :    0.000123649   -0.000242069    0.000215613
  37   H   :   -0.000226153   -0.000103112   -0.000099795
  38   H   :   -0.000035370    0.000071236   -0.000022347
  39   H   :    0.000099506   -0.000142918    0.000001859
  40   H   :   -0.000127259    0.000030510    0.000166374
  41   H   :   -0.000122154    0.000268152   -0.000013462
  42   H   :    0.000105419   -0.000136883    0.000224863
  43   H   :   -0.000307132   -0.000010052   -0.000024744
  44   H   :    0.000068593    0.000075141    0.000061532
  45   H   :    0.000111432   -0.000073769   -0.000077700
  46   H   :    0.000031383    0.000130242    0.000106801
  47   H   :   -0.000083319   -0.000173632    0.000090692

Difference to translation invariance:
           :   -0.0000000001   -0.0000000001    0.0000000000

Difference to rotation invariance:
           :   -0.0001140035    0.0003042631    0.0002164184

Norm of the Cartesian gradient     ...    0.0074530577
RMS gradient                       ...    0.0006276607
MAX gradient                       ...    0.0036367721

-------
TIMINGS
-------

Total SCF gradient time     ....      150.802 sec

Densities                   ....       0.007 sec  (  0.0%)
One electron gradient       ....       2.126 sec  (  1.4%)
RI-J Coulomb gradient       ....      10.496 sec  (  7.0%)
COSX gradient               ....     113.941 sec  ( 75.6%)
XC gradient                 ....      24.231 sec  ( 16.1%)

Maximum memory used throughout the entire SCFGRAD-calculation: 66.8 MB
------------------------------------------------------------------------------
                         ORCA GEOMETRY RELAXATION STEP
------------------------------------------------------------------------------

Reading the OPT-File                    .... done
Getting information on internals        .... done
Copying old internal coords+grads       .... done
Making the new internal coordinates     .... (2022 redundants) done
Validating the new internal coordinates .... (2022 redundants) done
Calculating the B-matrix                .... done
Calculating the G,G- and P matrices     .... done
Transforming gradient to internals      .... done
Projecting the internal gradient        .... done
Number of atoms                         ....  47
Number of internal coordinates          .... 220
Current Energy                          .... -1262.811294525 Eh
Current gradient norm                   ....     0.007453058 Eh/bohr
Maximum allowed component of the step   ....  0.300
Current trust radius                    ....  0.700
Updating the Hessian (BFGS)             .... done
Forming the augmented Hessian           .... done
Diagonalizing the augmented Hessian     .... done
Last element of RFO vector              ....  0.996563648
Lowest eigenvalues of augmented Hessian:
 -0.000179441  0.003717002  0.012617926  0.012687028  0.012808121
Length of the computed step             ....  0.083116144
The final length of the internal step   ....  0.083116144
Converting the step to Cartesian space:
 Initial RMS(Int)=    0.0056036893
Transforming coordinates:
 Iter   0:  RMS(Cart)=    0.0397786162 RMS(Int)=    1.6933075414
done
Storing new coordinates                 .... done
The predicted energy change is          ....    -0.000090340
Previously predicted energy change      ....    -0.000172694
Actually observed energy change         ....     0.000002757
Ratio of predicted to observed change   ....     0.015965530
New trust radius                        ....     0.466666667

                                .--------------------.
          ----------------------|Geometry convergence|-------------------------
          Item                value                   Tolerance       Converged
          ---------------------------------------------------------------------
          Energy change       0.0000027572            0.0000050000      YES
          RMS gradient        0.0002910280            0.0001000000      NO
          MAX gradient        0.0010407743            0.0003000000      NO
          RMS step            0.0056036893            0.0020000000      NO
          MAX step            0.0237286309            0.0040000000      NO
          -------------------------------------------------------------------------
          ........................................................
          Max(Bonds)      0.0014      Max(Angles)    0.19
          Max(Dihed)        1.36      Max(Improp)    0.00
          ---------------------------------------------------------------------

The optimization has not yet converged - more geometry cycles are needed


    ---------------------------------------------------------------------------
                         Redundant Internal Coordinates
                            (Angstroem and degrees)

        Definition                    Value    dE/dq     Step     New-Value
    ----------------------------------------------------------------------------
     1. B(O   1,C   0)                1.4183 -0.000092  0.0001    1.4184   
     2. B(C   2,O   1)                1.3620  0.000393 -0.0004    1.3615   
     3. B(C   3,C   2)                1.3918  0.000423 -0.0005    1.3913   
     4. B(C   4,C   3)                1.4141  0.000050  0.0001    1.4142   
     5. B(C   5,C   4)                1.4571  0.000316 -0.0006    1.4566   
     6. B(C   6,C   5)                1.3518  0.000066  0.0001    1.3520   
     7. B(C   7,C   6)                1.4764 -0.000060 -0.0004    1.4760   
     8. B(O   8,C   7)                1.2272  0.000307 -0.0002    1.2270   
     9. B(C   9,C   7)                1.5321 -0.000703  0.0014    1.5335   
    10. B(C  10,C   9)                1.5355 -0.000661  0.0013    1.5368   
    11. B(O  11,C  10)                1.2259  0.000511 -0.0002    1.2257   
    12. B(C  12,C  10)                1.4764  0.000205 -0.0006    1.4758   
    13. B(C  13,C  12)                1.3519  0.000008  0.0002    1.3520   
    14. B(C  14,C  13)                1.4560  0.000230 -0.0005    1.4555   
    15. B(C  15,C  14)                1.4022  0.000116 -0.0002    1.4020   
    16. B(C  16,C  15)                1.3951  0.000130 -0.0001    1.3951   
    17. B(C  17,C  16)                1.3933  0.000251 -0.0004    1.3928   
    18. B(O  18,C  17)                1.3606 -0.000012 -0.0002    1.3604   
    19. B(C  19,C  17)                1.4190 -0.000620  0.0009    1.4199   
    20. B(O  20,C  19)                1.3609  0.000273 -0.0003    1.3606   
    21. B(C  21,O  20)                1.4191 -0.000067  0.0001    1.4193   
    22. B(C  22,C  19)                1.3887  0.000215 -0.0004    1.3883   
    23. B(C  22,C  14)                1.4153  0.000033  0.0003    1.4156   
    24. B(C  23,C   4)                1.4039  0.000013 -0.0000    1.4039   
    25. B(C  24,C  23)                1.3918 -0.000154  0.0002    1.3920   
    26. B(C  25,C  24)                1.3972  0.000572 -0.0007    1.3965   
    27. B(C  25,C   2)                1.4137 -0.001041  0.0013    1.4150   
    28. B(O  26,C  25)                1.3610  0.000026 -0.0002    1.3608   
    29. B(H  27,C   0)                1.0985 -0.000051  0.0001    1.0985   
    30. B(H  28,C   0)                1.0986  0.000042 -0.0000    1.0985   
    31. B(H  29,C   0)                1.0917  0.000020 -0.0001    1.0916   
    32. B(H  30,C   3)                1.0844 -0.000132  0.0002    1.0846   
    33. B(H  31,C   5)                1.0902 -0.000046  0.0001    1.0903   
    34. B(H  32,C   6)                1.0871  0.000015 -0.0000    1.0871   
    35. B(H  33,C   9)                1.0940 -0.000018 -0.0001    1.0938   
    36. B(H  34,C   9)                1.0946  0.000044 -0.0002    1.0945   
    37. B(H  35,C  12)                1.0873  0.000144 -0.0002    1.0871   
    38. B(H  36,C  13)                1.0900 -0.000022  0.0001    1.0901   
    39. B(H  37,C  15)                1.0865 -0.000011  0.0000    1.0865   
    40. B(H  38,C  16)                1.0885 -0.000088  0.0002    1.0887   
    41. B(H  39,O  18)                0.9704 -0.000126  0.0002    0.9705   
    42. B(H  40,C  21)                1.0983 -0.000029  0.0000    1.0984   
    43. B(H  41,C  21)                1.0916  0.000020 -0.0001    1.0916   
    44. B(H  42,C  21)                1.0983  0.000011  0.0000    1.0983   
    45. B(H  43,C  22)                1.0833  0.000037 -0.0001    1.0832   
    46. B(H  44,C  23)                1.0853  0.000047 -0.0001    1.0852   
    47. B(H  45,C  24)                1.0887 -0.000096  0.0002    1.0888   
    48. B(H  46,O  26)                0.9703 -0.000112  0.0001    0.9705   
    49. A(O   1,C   0,H  28)          111.55 -0.000171    0.03    111.58   
    50. A(H  27,C   0,H  28)          109.32  0.000315   -0.12    109.20   
    51. A(H  28,C   0,H  29)          109.21 -0.000204    0.08    109.29   
    52. A(H  27,C   0,H  29)          109.21 -0.000225    0.08    109.29   
    53. A(O   1,C   0,H  29)          105.91  0.000374   -0.07    105.84   
    54. A(O   1,C   0,H  27)          111.54 -0.000102    0.01    111.56   
    55. A(C   0,O   1,C   2)          117.90 -0.000148    0.04    117.94   
    56. A(O   1,C   2,C   3)          125.55  0.000165   -0.01    125.54   
    57. A(O   1,C   2,C  25)          115.53  0.000060   -0.03    115.50   
    58. A(C   3,C   2,C  25)          118.92 -0.000225    0.04    118.96   
    59. A(C   4,C   3,H  30)          118.32 -0.000175    0.04    118.36   
    60. A(C   2,C   3,H  30)          119.89  0.000137   -0.03    119.86   
    61. A(C   2,C   3,C   4)          121.79  0.000039   -0.01    121.78   
    62. A(C   3,C   4,C  23)          118.28 -0.000018    0.01    118.28   
    63. A(C   3,C   4,C   5)          118.26 -0.000334    0.07    118.33   
    64. A(C   5,C   4,C  23)          123.46  0.000352   -0.08    123.39   
    65. A(C   4,C   5,H  31)          115.96 -0.000216    0.10    116.06   
    66. A(C   4,C   5,C   6)          128.41  0.000164   -0.04    128.38   
    67. A(C   6,C   5,H  31)          115.63  0.000051   -0.07    115.56   
    68. A(C   5,C   6,H  32)          122.48  0.000442   -0.13    122.35   
    69. A(C   7,C   6,H  32)          117.01 -0.000052    0.06    117.07   
    70. A(C   5,C   6,C   7)          120.50 -0.000390    0.08    120.58   
    71. A(O   8,C   7,C   9)          120.53 -0.000031   -0.02    120.51   
    72. A(C   6,C   7,C   9)          116.04  0.000507   -0.05    115.99   
    73. A(C   6,C   7,O   8)          123.35 -0.000518    0.11    123.46   
    74. A(H  33,C   9,H  34)          110.12 -0.000166    0.19    110.31   
    75. A(C   7,C   9,H  34)          107.53 -0.000253   -0.05    107.48   
    76. A(C   7,C   9,C  10)          110.25 -0.000302   -0.13    110.12   
    77. A(C  10,C   9,H  34)          110.39  0.000669   -0.03    110.35   
    78. A(C   7,C   9,H  33)          111.04 -0.000117    0.05    111.09   
    79. A(C  10,C   9,H  33)          107.54  0.000178   -0.04    107.50   
    80. A(O  11,C  10,C  12)          123.56 -0.000668    0.10    123.66   
    81. A(C   9,C  10,C  12)          115.85  0.000779   -0.11    115.75   
    82. A(C   9,C  10,O  11)          120.58 -0.000123   -0.02    120.56   
    83. A(C  10,C  12,H  35)          116.76 -0.000094    0.06    116.82   
    84. A(C  13,C  12,H  35)          122.65  0.000537   -0.15    122.50   
    85. A(C  10,C  12,C  13)          120.59 -0.000443    0.09    120.68   
    86. A(C  14,C  13,H  36)          115.78 -0.000324    0.10    115.88   
    87. A(C  12,C  13,H  36)          115.81 -0.000049   -0.07    115.74   
    88. A(C  12,C  13,C  14)          128.41  0.000372   -0.04    128.37   
    89. A(C  15,C  14,C  22)          118.35 -0.000046    0.00    118.35   
    90. A(C  13,C  14,C  22)          122.88  0.000627   -0.11    122.77   
    91. A(C  13,C  14,C  15)          118.77 -0.000580    0.11    118.88   
    92. A(C  16,C  15,H  37)          119.61 -0.000154    0.04    119.65   
    93. A(C  14,C  15,H  37)          119.61 -0.000003   -0.01    119.60   
    94. A(C  14,C  15,C  16)          120.78  0.000157   -0.03    120.75   
    95. A(C  17,C  16,H  38)          119.33  0.000366   -0.10    119.23   
    96. A(C  15,C  16,H  38)          120.16  0.000080    0.02    120.18   
    97. A(C  15,C  16,C  17)          120.51 -0.000446    0.08    120.59   
    98. A(O  18,C  17,C  19)          117.04  0.000415   -0.08    116.97   
    99. A(C  16,C  17,C  19)          119.69  0.000448   -0.07    119.61   
   100. A(C  16,C  17,O  18)          123.27 -0.000863    0.15    123.42   
   101. A(C  17,O  18,H  39)          108.65  0.000308   -0.03    108.62   
   102. A(O  20,C  19,C  22)          125.53  0.000194   -0.02    125.51   
   103. A(C  17,C  19,C  22)          119.30 -0.000082    0.02    119.31   
   104. A(C  17,C  19,O  20)          115.17 -0.000112    0.01    115.18   
   105. A(C  19,O  20,C  21)          117.89 -0.000221    0.04    117.93   
   106. A(H  41,C  21,H  42)          109.27 -0.000222    0.08    109.35   
   107. A(H  40,C  21,H  42)          109.33  0.000332   -0.13    109.21   
   108. A(H  40,C  21,H  41)          109.25 -0.000188    0.08    109.34   
   109. A(O  20,C  21,H  41)          105.90  0.000375   -0.07    105.82   
   110. A(O  20,C  21,H  40)          111.48 -0.000204    0.03    111.50   
   111. A(O  20,C  21,H  42)          111.52 -0.000105    0.01    111.54   
   112. A(C  14,C  22,C  19)          121.38 -0.000031    0.00    121.38   
   113. A(C  19,C  22,H  43)          119.50  0.000014    0.01    119.51   
   114. A(C  14,C  22,H  43)          119.12  0.000017   -0.01    119.11   
   115. A(C   4,C  23,C  24)          120.39  0.000057   -0.01    120.37   
   116. A(C  24,C  23,H  44)          119.16 -0.000165    0.07    119.23   
   117. A(C   4,C  23,H  44)          120.45  0.000109   -0.06    120.39   
   118. A(C  25,C  24,H  45)          119.08  0.000310   -0.08    119.00   
   119. A(C  23,C  24,H  45)          119.96  0.000031    0.03    119.99   
   120. A(C  23,C  24,C  25)          120.96 -0.000341    0.06    121.02   
   121. A(C  24,C  25,O  26)          123.05 -0.000985    0.17    123.22   
   122. A(C   2,C  25,O  26)          117.29  0.000497   -0.09    117.19   
   123. A(C   2,C  25,C  24)          119.66  0.000488   -0.08    119.59   
   124. A(C  25,O  26,H  46)          108.70  0.000319   -0.04    108.67   
   125. D(C   2,O   1,C   0,H  27)    -61.28 -0.000117    0.07    -61.21   
   126. D(C   2,O   1,C   0,H  28)     61.29  0.000094   -0.05     61.24   
   127. D(C   2,O   1,C   0,H  29)   -179.99 -0.000017    0.01   -179.98   
   128. D(C   3,C   2,O   1,C   0)     -0.08  0.000025   -0.01     -0.09   
   129. D(C  25,C   2,O   1,C   0)    179.81 -0.000027    0.09    179.90   
   130. D(H  30,C   3,C   2,C  25)   -180.00  0.000019   -0.04   -180.04   
   131. D(C   4,C   3,C   2,C  25)      0.04  0.000059   -0.17     -0.14   
   132. D(H  30,C   3,C   2,O   1)     -0.11 -0.000034    0.06     -0.05   
   133. D(C   4,C   3,C   2,O   1)    179.92  0.000006   -0.07    179.85   
   134. D(C  23,C   4,C   3,C   2)     -0.04 -0.000066    0.24      0.20   
   135. D(C  23,C   4,C   3,H  30)    180.00 -0.000028    0.11    180.10   
   136. D(C   5,C   4,C   3,H  30)     -0.09 -0.000003    0.03     -0.06   
   137. D(C   5,C   4,C   3,C   2)    179.88 -0.000042    0.16    180.04   
   138. D(C   6,C   5,C   4,C   3)    178.24 -0.000009   -1.04    177.21   
   139. D(C   6,C   5,C   4,C  23)     -1.84  0.000017   -1.12     -2.96   
   140. D(H  31,C   5,C   4,C   3)     -1.77 -0.000085   -0.78     -2.55   
   141. D(H  31,C   5,C   4,C  23)    178.14 -0.000059   -0.86    177.28   
   142. D(H  32,C   6,C   5,C   4)      0.04  0.000041   -0.11     -0.08   
   143. D(H  32,C   6,C   5,H  31)   -179.95  0.000117   -0.38   -180.32   
   144. D(C   7,C   6,C   5,H  31)     -0.13  0.000100   -0.25     -0.38   
   145. D(C   7,C   6,C   5,C   4)    179.85  0.000025    0.01    179.86   
   146. D(C   9,C   7,C   6,H  32)     -1.49  0.000385   -0.38     -1.87   
   147. D(C   9,C   7,C   6,C   5)    178.68  0.000400   -0.50    178.18   
   148. D(O   8,C   7,C   6,H  32)    175.53 -0.000544    0.74    176.27   
   149. D(O   8,C   7,C   6,C   5)     -4.29 -0.000529    0.63     -3.67   
   150. D(H  34,C   9,C   7,C   6)   -163.98 -0.000026    0.66   -163.31   
   151. D(H  33,C   9,C   7,O   8)    139.44  0.000458   -0.20    139.24   
   152. D(H  33,C   9,C   7,C   6)    -43.44 -0.000459    0.90    -42.55   
   153. D(C  10,C   9,C   7,O   8)   -101.48  0.000411   -0.29   -101.78   
   154. D(C  10,C   9,C   7,C   6)     75.63 -0.000506    0.80     76.43   
   155. D(O  11,C  10,C   9,C   7)   -109.65 -0.000379    0.95   -108.71   
   156. D(C  12,C  10,C   9,H  33)   -167.89  0.000709   -0.80   -168.68   
   157. D(C  12,C  10,C   9,C   7)     70.93  0.000919   -0.77     70.15   
   158. D(O  11,C  10,C   9,H  34)    131.69 -0.000294    1.11    132.79   
   159. D(O  11,C  10,C   9,H  33)     11.54 -0.000589    0.92     12.46   
   160. D(H  35,C  12,C  10,C   9)     -3.53 -0.000637    0.84     -2.68   
   161. D(H  35,C  12,C  10,O  11)    177.07  0.000700   -0.93    176.14   
   162. D(C  13,C  12,C  10,C   9)    176.88 -0.000611    0.73    177.61   
   163. D(C  13,C  12,C  10,O  11)     -2.53  0.000726   -1.04     -3.57   
   164. D(H  36,C  13,C  12,H  35)   -179.31  0.000200   -0.53   -179.84   
   165. D(H  36,C  13,C  12,C  10)      0.26  0.000170   -0.41     -0.14   
   166. D(C  14,C  13,C  12,H  35)      0.39 -0.000015   -0.12      0.27   
   167. D(C  14,C  13,C  12,C  10)    179.96 -0.000045    0.00    179.96   
   168. D(C  22,C  14,C  13,C  12)      0.05  0.000191   -1.35     -1.30   
   169. D(C  22,C  14,C  13,H  36)    179.75 -0.000023   -0.95    178.80   
   170. D(C  15,C  14,C  13,C  12)   -179.80  0.000183   -1.36   -181.16   
   171. D(C  15,C  14,C  13,H  36)     -0.11 -0.000031   -0.95     -1.06   
   172. D(H  37,C  15,C  14,C  22)    179.91 -0.000035    0.14    180.05   
   173. D(H  37,C  15,C  14,C  13)     -0.23 -0.000026    0.14     -0.09   
   174. D(C  16,C  15,C  14,C  22)     -0.29 -0.000118    0.35      0.06   
   175. D(C  16,C  15,C  14,C  13)    179.57 -0.000110    0.35    179.92   
   176. D(H  38,C  16,C  15,H  37)     -0.02 -0.000013    0.03      0.01   
   177. D(H  38,C  16,C  15,C  14)   -179.83  0.000070   -0.18   -180.01   
   178. D(C  17,C  16,C  15,H  37)   -179.99  0.000013   -0.03   -180.02   
   179. D(C  17,C  16,C  15,C  14)      0.20  0.000096   -0.24     -0.04   
   180. D(C  19,C  17,C  16,H  38)    179.99  0.000005   -0.06    179.93   
   181. D(C  19,C  17,C  16,C  15)     -0.04 -0.000020    0.00     -0.04   
   182. D(O  18,C  17,C  16,H  38)     -0.10 -0.000054    0.09     -0.01   
   183. D(O  18,C  17,C  16,C  15)    179.87 -0.000079    0.15    180.02   
   184. D(H  39,O  18,C  17,C  19)   -179.99 -0.000028    0.08   -179.91   
   185. D(H  39,O  18,C  17,C  16)      0.10  0.000029   -0.06      0.04   
   186. D(O  20,C  19,C  17,O  18)     -0.05 -0.000036    0.11      0.06   
   187. D(O  20,C  19,C  17,C  16)    179.86 -0.000092    0.25    180.11   
   188. D(C  22,C  19,C  17,O  18)   -179.94  0.000027   -0.02   -179.97   
   189. D(C  22,C  19,C  17,C  16)     -0.03 -0.000029    0.12      0.09   
   190. D(C  21,O  20,C  19,C  22)      0.04  0.000016    0.01      0.05   
   191. D(C  21,O  20,C  19,C  17)   -179.84  0.000084   -0.14   -179.97   
   192. D(H  42,C  21,O  20,C  19)    -61.39 -0.000128    0.11    -61.29   
   193. D(H  41,C  21,O  20,C  19)    179.85 -0.000031    0.04    179.89   
   194. D(H  40,C  21,O  20,C  19)     61.13  0.000078   -0.03     61.10   
   195. D(H  43,C  22,C  19,O  20)      0.12  0.000037    0.05      0.16   
   196. D(H  43,C  22,C  19,C  17)    179.99 -0.000034    0.20    180.19   
   197. D(C  14,C  22,C  19,O  20)   -179.94  0.000075   -0.15   -180.09   
   198. D(C  14,C  22,C  19,C  17)     -0.06  0.000004   -0.00     -0.06   
   199. D(H  43,C  22,C  14,C  15)   -179.84  0.000106   -0.43   -180.26   
   200. D(H  43,C  22,C  14,C  13)      0.31  0.000099   -0.43     -0.12   
   201. D(C  19,C  22,C  14,C  15)      0.22  0.000068   -0.23     -0.01   
   202. D(C  19,C  22,C  14,C  13)   -179.64  0.000061   -0.23   -179.87   
   203. D(H  44,C  23,C   4,C   5)     -0.07  0.000035   -0.24     -0.31   
   204. D(H  44,C  23,C   4,C   3)    179.84  0.000060   -0.32    179.52   
   205. D(C  24,C  23,C   4,C   5)   -179.87  0.000015   -0.08   -179.95   
   206. D(C  24,C  23,C   4,C   3)      0.04  0.000040   -0.16     -0.12   
   207. D(H  45,C  24,C  23,H  44)      0.19  0.000014    0.05      0.24   
   208. D(H  45,C  24,C  23,C   4)    179.99  0.000035   -0.11    179.88   
   209. D(C  25,C  24,C  23,H  44)   -179.86 -0.000028    0.19   -179.67   
   210. D(C  25,C  24,C  23,C   4)     -0.05 -0.000008    0.02     -0.03   
   211. D(O  26,C  25,C  24,H  45)      0.06  0.000009    0.04      0.10   
   212. D(O  26,C  25,C  24,C  23)   -179.90  0.000051   -0.09   -179.99   
   213. D(C   2,C  25,C  24,H  45)   -179.99 -0.000042    0.18   -179.81   
   214. D(C   2,C  25,C  24,C  23)      0.05 -0.000000    0.04      0.10   
   215. D(O  26,C  25,C   2,C   3)    179.91 -0.000074    0.16    180.07   
   216. D(O  26,C  25,C   2,O   1)      0.01 -0.000026    0.07      0.08   
   217. D(C  24,C  25,C   2,C   3)     -0.04 -0.000025    0.03     -0.01   
   218. D(C  24,C  25,C   2,O   1)   -179.94  0.000023   -0.06   -180.00   
   219. D(H  46,O  26,C  25,C  24)      0.02  0.000016    0.02      0.04   
   220. D(H  46,O  26,C  25,C   2)   -179.93  0.000066   -0.11   -180.04   
    ----------------------------------------------------------------------------

Geometry step timings:
Preparation and reading OPT file:      0.012 s (35.294 %)
Internal coordinates            :      0.000 s ( 0.000 %)
B/P matrices and projection     :      0.009 s (26.471 %)
Hessian update/contruction      :      0.003 s ( 8.824 %)
Making the step                 :      0.004 s (11.765 %)
Converting the step to Cartesian:      0.001 s ( 2.941 %)
Storing new data                :      0.000 s ( 0.000 %)
Checking convergence            :      0.001 s ( 2.941 %)
Final printing                  :      0.004 s (11.765 %)
Total time                      :      0.034 s

Time for energy+gradient        :    418.678 s
Time for complete geometry iter :    418.804 s

         *************************************************************
         *                GEOMETRY OPTIMIZATION CYCLE   9            *
         *************************************************************
---------------------------------
CARTESIAN COORDINATES (ANGSTROEM)
---------------------------------
  C     -1.458913   -7.455040    1.852184
  O     -0.659356   -7.674287    0.701314
  C      0.111335   -6.644740    0.254270
  C      0.185274   -5.380495    0.830408
  C      1.017806   -4.367858    0.299962
  C      1.037941   -3.071459    0.963725
  C      1.788352   -1.987224    0.665220
  C      1.666784   -0.748391    1.458437
  O      0.855920   -0.604180    2.367903
  C      2.597935    0.401583    1.055844
  C      2.077416    1.081289   -0.220384
  O      2.666589    0.940898   -1.286003
  C      0.837815    1.867521   -0.068230
  C      0.318606    2.546400   -1.115873
  C     -0.883235    3.366420   -1.154915
  C     -1.227637    4.006482   -2.353791
  C     -2.371890    4.800400   -2.435389
  C     -3.196020    4.972166   -1.325733
  O     -4.324281    5.732174   -1.340833
  C     -2.867242    4.332011   -0.101726
  O     -3.734572    4.559369    0.921581
  C     -3.461425    3.947702    2.172812
  C     -1.725689    3.545062   -0.031428
  C      1.779752   -4.663215   -0.841551
  C      1.711476   -5.924511   -1.426386
  C      0.889302   -6.920514   -0.895043
  O      0.788328   -8.167807   -1.429809
  H     -0.844952   -7.208978    2.729272
  H     -2.192117   -6.653617    1.688102
  H     -1.985475   -8.394141    2.032510
  H     -0.405245   -5.153167    1.711299
  H      0.364850   -2.958083    1.813927
  H      2.499586   -1.980498   -0.156856
  H      3.607098    0.035774    0.845440
  H      2.617723    1.114588    1.885949
  H      0.372943    1.865106    0.914408
  H      0.873357    2.470353   -2.051181
  H     -0.595843    3.882739   -3.229020
  H     -2.630502    5.293271   -3.371057
  H     -4.432930    6.107892   -2.229071
  H     -2.499818    4.283590    2.583775
  H     -4.267920    4.259625    2.838981
  H     -3.457720    2.852285    2.093825
  H     -1.473549    3.052721    0.899892
  H      2.424237   -3.909148   -1.281696
  H      2.303691   -6.146116   -2.312818
  H      1.368115   -8.220760   -2.206250

----------------------------
CARTESIAN COORDINATES (A.U.)
----------------------------
  NO LB      ZA    FRAG     MASS         X           Y           Z
   0 C     6.0000    0    12.011   -2.756947  -14.087984    3.500120
   1 O     8.0000    0    15.999   -1.246003  -14.502301    1.325292
   2 C     6.0000    0    12.011    0.210393  -12.556740    0.480501
   3 C     6.0000    0    12.011    0.350118  -10.167661    1.569244
   4 C     6.0000    0    12.011    1.923375   -8.254055    0.566845
   5 C     6.0000    0    12.011    1.961424   -5.804216    1.821176
   6 C     6.0000    0    12.011    3.379496   -3.755310    1.257084
   7 C     6.0000    0    12.011    3.149765   -1.414255    2.756047
   8 O     8.0000    0    15.999    1.617454   -1.141734    4.474688
   9 C     6.0000    0    12.011    4.909387    0.758882    1.995255
  10 C     6.0000    0    12.011    3.925748    2.043340   -0.416465
  11 O     8.0000    0    15.999    5.039124    1.778039   -2.430193
  12 C     6.0000    0    12.011    1.583241    3.529104   -0.128936
  13 C     6.0000    0    12.011    0.602078    4.811999   -2.108694
  14 C     6.0000    0    12.011   -1.669072    6.361611   -2.182474
  15 C     6.0000    0    12.011   -2.319898    7.571153   -4.448021
  16 C     6.0000    0    12.011   -4.482222    9.071441   -4.602218
  17 C     6.0000    0    12.011   -6.039603    9.396032   -2.505272
  18 O     8.0000    0    15.999   -8.171706   10.832238   -2.533807
  19 C     6.0000    0    12.011   -5.418301    8.186314   -0.192235
  20 O     8.0000    0    15.999   -7.057318    8.615958    1.741536
  21 C     6.0000    0    12.011   -6.541146    7.460076    4.106020
  22 C     6.0000    0    12.011   -3.261080    6.699197   -0.059391
  23 C     6.0000    0    12.011    3.363244   -8.812199   -1.590301
  24 C     6.0000    0    12.011    3.234221  -11.195702   -2.695478
  25 C     6.0000    0    12.011    1.680537  -13.077875   -1.691387
  26 O     8.0000    0    15.999    1.489724  -15.434919   -2.701948
  27 H     1.0000    0     1.008   -1.596728  -13.622993    5.157576
  28 H     1.0000    0     1.008   -4.142502  -12.573515    3.190051
  29 H     1.0000    0     1.008   -3.752004  -15.862627    3.840888
  30 H     1.0000    0     1.008   -0.765802   -9.738074    3.233887
  31 H     1.0000    0     1.008    0.689467   -5.589967    3.427826
  32 H     1.0000    0     1.008    4.723533   -3.742600   -0.296415
  33 H     1.0000    0     1.008    6.816428    0.067603    1.597649
  34 H     1.0000    0     1.008    4.946780    2.106267    3.563926
  35 H     1.0000    0     1.008    0.704759    3.524540    1.727981
  36 H     1.0000    0     1.008    1.650406    4.668290   -3.876170
  37 H     1.0000    0     1.008   -1.125980    7.337313   -6.101964
  38 H     1.0000    0     1.008   -4.970929   10.002832   -6.370374
  39 H     1.0000    0     1.008   -8.377023   11.542243   -4.212333
  40 H     1.0000    0     1.008   -4.723972    8.094813    4.882627
  41 H     1.0000    0     1.008   -8.065200    8.049526    5.364897
  42 H     1.0000    0     1.008   -6.534143    5.390038    3.956755
  43 H     1.0000    0     1.008   -2.784604    5.768806    1.700549
  44 H     1.0000    0     1.008    4.581145   -7.387219   -2.422054
  45 H     1.0000    0     1.008    4.353344  -11.614476   -4.370594
  46 H     1.0000    0     1.008    2.585362  -15.534985   -4.169208

--------------------------------
INTERNAL COORDINATES (ANGSTROEM)
--------------------------------
 C      0   0   0     0.000000000000     0.00000000     0.00000000
 O      1   0   0     1.418401077464     0.00000000     0.00000000
 C      2   1   0     1.361535980640   117.94392240     0.00000000
 C      3   2   1     1.391301209919   125.53701482   359.91154570
 C      4   3   2     1.414183896972   121.77783405   179.85205973
 C      5   4   3     1.456584414334   118.32808707   180.04038824
 C      6   5   4     1.351956568145   128.37716277   177.20808909
 C      7   6   5     1.476035057454   120.57898887   179.86310872
 O      8   7   6     1.226958203437   123.46423660   356.33242857
 C      8   7   6     1.533481429838   115.99557599   178.18377848
 C     10   8   7     1.536781752610   110.12292973    76.43398004
 O     11  10   8     1.225715507769   120.56508617   251.29519692
 C     11  10   8     1.475778935166   115.75447877    70.15618112
 C     13  11  10     1.352039487595   120.67572995   177.60826770
 C     14  13  11     1.455464422036   128.37325021   179.96199897
 C     15  14  13     1.401997379259   118.88145493   178.83666341
 C     16  15  14     1.395090434683   120.75069747   179.92513344
 C     17  16  15     1.392850121941   120.58945215   359.96379762
 O     18  17  16     1.360445125987   123.41876280   180.01765649
 C     18  17  16     1.419889367294   119.61489497   359.96307473
 O     20  18  17     1.360555586117   115.17685932   180.11068227
 C     21  20  18     1.419268963860   117.92849726   180.02574048
 C     20  18  17     1.388298201971   119.31491179     0.08518824
 C      5   4   3     1.403868776885   118.28510786     0.20070415
 C     24   5   4     1.391962841958   120.37445616   359.88493994
 C     25  24   5     1.396537503041   121.01528672   359.96939558
 O     26  25  24     1.360849827067   123.21986607   180.00955590
 H      1   2   3     1.098535097245   111.55520165   298.79418547
 H      1   2   3     1.098539699298   111.58067195    61.23982961
 H      1   2   3     1.091647626454   105.84064373   180.02152602
 H      4   3   2     1.084601475464   119.85746509   359.95110373
 H      6   5   4     1.090297658358   116.06341406   357.45477866
 H      7   6   5     1.087064126625   122.35011398   359.92301385
 H     10   8   7     1.093844641584   111.09503943   317.45086852
 H     10   8   7     1.094459796722   107.48152109   196.68583231
 H     13  11  10     1.087055512751   116.82192558   357.31709273
 H     14  13  11     1.090106877913   115.74547723   359.85749843
 H     16  15  14     1.086508785271   119.60361124   359.91159766
 H     17  16  15     1.088704421929   120.18073031   179.99291466
 H     19  18  17     0.970533406970   108.61856941     0.04129825
 H     22  21  20     1.098362089250   111.50352130    61.09972536
 H     22  21  20     1.091563584466   105.82401241   179.88787267
 H     22  21  20     1.098267413592   111.53681606   298.71468234
 H     23  20  18     1.083204487439   119.51037084   180.19135638
 H     24   5   4     1.085221537512   120.39250140   179.51936328
 H     25  24   5     1.088847973409   119.98579712   179.87800702
 H     27  26  25     0.970472373369   108.66769334     0.04053331

---------------------------
INTERNAL COORDINATES (A.U.)
---------------------------
 C      0   0   0     0.000000000000     0.00000000     0.00000000
 O      1   0   0     2.680389584466     0.00000000     0.00000000
 C      2   1   0     2.572930124890   117.94392240     0.00000000
 C      3   2   1     2.629178256539   125.53701482   359.91154570
 C      4   3   2     2.672420268279   121.77783405   179.85205973
 C      5   4   3     2.752545634029   118.32808707   180.04038824
 C      6   5   4     2.554827658750   128.37716277   177.20808909
 C      7   6   5     2.789302022654   120.57898887   179.86310872
 O      8   7   6     2.318614982265   123.46423660   356.33242857
 C      8   7   6     2.897859933848   115.99557599   178.18377848
 C     10   8   7     2.904096640041   110.12292973    76.43398004
 O     11  10   8     2.316266627785   120.56508617   251.29519692
 C     11  10   8     2.788818021673   115.75447877    70.15618112
 C     13  11  10     2.554984353801   120.67572995   177.60826770
 C     14  13  11     2.750429155315   128.37325021   179.96199897
 C     15  14  13     2.649391087275   118.88145493   178.83666341
 C     16  15  14     2.636338853605   120.75069747   179.92513344
 C     17  16  15     2.632105276067   120.58945215   359.96379762
 O     18  17  16     2.570868708343   123.41876280   180.01765649
 C     18  17  16     2.683202044652   119.61489497   359.96307473
 O     20  18  17     2.571077447738   115.17685932   180.11068227
 C     21  20  18     2.682029652070   117.92849726   180.02574048
 C     20  18  17     2.623503393940   119.31491179     0.08518824
 C      5   4   3     2.652927516276   118.28510786     0.20070415
 C     24   5   4     2.630428559894   120.37445616   359.88493994
 C     25  24   5     2.639073416497   121.01528672   359.96939558
 O     26  25  24     2.571633482551   123.21986607   180.00955590
 H      1   2   3     2.075930482295   111.55520165   298.79418547
 H      1   2   3     2.075939178913   111.58067195    61.23982961
 H      1   2   3     2.062915048743   105.84064373   180.02152602
 H      4   3   2     2.049599753073   119.85746509   359.95110373
 H      6   5   4     2.060363978752   116.06341406   357.45477866
 H      7   6   5     2.054253489332   122.35011398   359.92301385
 H     10   8   7     2.067066805651   111.09503943   317.45086852
 H     10   8   7     2.068229280391   107.48152109   196.68583231
 H     13  11  10     2.054237211468   116.82192558   357.31709273
 H     14  13  11     2.060003455959   115.74547723   359.85749843
 H     16  15  14     2.053204046261   119.60361124   359.91159766
 H     17  16  15     2.057353198235   120.18073031   179.99291466
 H     19  18  17     1.834042342995   108.61856941     0.04129825
 H     22  21  20     2.075603544564   111.50352130    61.09972536
 H     22  21  20     2.062756232403   105.82401241   179.88787267
 H     22  21  20     2.075424633500   111.53681606   298.71468234
 H     23  20  18     2.046959828293   119.51037084   180.19135638
 H     24   5   4     2.050771500531   120.39250140   179.51936328
 H     25  24   5     2.057624471218   119.98579712   179.87800702
 H     27  26  25     1.833927006203   108.66769334     0.04053331

------------------------------------------------------------------------------
                   ___                                                        
                  /   \      - P O W E R E D   B Y -                         
                 /     \                                                     
                 |  |  |   _    _      __       _____    __    __             
                 |  |  |  | |  | |    /  \     |  _  \  |  |  /  |          
                  \  \/   | |  | |   /    \    | | | |  |  | /  /          
                 / \  \   | |__| |  /  /\  \   | |_| |  |  |/  /          
                |  |  |   |  __  | /  /__\  \  |    /   |      \           
                |  |  |   | |  | | |   __   |  |    \   |  |\   \          
                \     /   | |  | | |  |  |  |  | |\  \  |  | \   \       
                 \___/    |_|  |_| |__|  |__|  |_| \__\ |__|  \__/        
                                                                              
                      - O R C A' S   B I G   F R I E N D -                    
                                      &                                       
                       - I N T E G R A L  F E E D E R -                       
                                                                              
 v1 FN, 2020, v2 2021, v3 2022-2024                                           
------------------------------------------------------------------------------


----------------------
SHARK INTEGRAL PACKAGE
----------------------

Number of atoms                             ...     47
Number of basis functions                   ...    418
Number of shells                            ...    202
Maximum angular momentum                    ...      2
Integral batch strategy                     ... SHARK/LIBINT Hybrid
RI-J (if used) integral strategy            ... SPLIT-RIJ (Revised 2003 algorithm where possible)
Printlevel                                  ...      1
Contraction scheme used                     ... SEGMENTED contraction
Prescreening option                         ... SCHWARTZ
   Thresh                                   ... 2.500e-11
   Tcut                                     ... 2.500e-12
   Tpresel                                  ... 2.500e-12 
Coulomb Range Separation                    ... NOT USED
Exchange Range Separation                   ... NOT USED
Multipole approximations                    ... NOT USED
Finite Nucleus Model                        ... NOT USED
CABS basis                                  ... NOT available
Auxiliary Coulomb fitting basis             ... AVAILABLE
   # of basis functions in Aux-J            ...   1543
   # of shells in Aux-J                     ...    505
   Maximum angular momentum in Aux-J        ...      4
Auxiliary J/K fitting basis                 ... NOT available
Auxiliary Correlation fitting basis         ... NOT available
Auxiliary 'external' fitting basis          ... NOT available

Checking pre-screening integrals            ... done (  0.0 sec) Dimension = 202
   => SHARK Basis and OBASIS are compatible. Storing Pre-screening
Shell pair information
Shell pair cut-off parameter TPreSel        ...   2.5e-12
Total number of shell pairs                 ...     20503
Shell pairs after pre-screening             ...     10421
Total number of primitive shell pairs       ...    118482
Primitive shell pairs kept                  ...     33405
          la=0 lb=0:   3564 shell pairs
          la=1 lb=0:   3593 shell pairs
          la=1 lb=1:    918 shell pairs
          la=2 lb=0:   1435 shell pairs
          la=2 lb=1:    756 shell pairs
          la=2 lb=2:    155 shell pairs

Checking whether 4 symmetric matrices of dimension 418 fit in memory
:Max Core in MB      =   4096.00
 MB in use           =     16.48
 MB left             =   4079.52
 MB needed           =      2.67
 Data fit in memory  = YES
Calculating RI/J V-Matrix + Cholesky decomp.... done (  0.2 sec)
Calculating Nuclear repulsion               ... done (  0.0 sec) ENN=   2152.403294786100 Eh

Diagonalization of the overlap matrix:
Smallest eigenvalue                        ... 4.107e-04
Time for diagonalization                   ...    0.023 sec
Threshold for overlap eigenvalues          ... 1.000e-07
Number of eigenvalues below threshold      ... 0
Time for construction of square roots      ...    0.013 sec
Total time needed                          ...    0.038 sec

-------------------
DFT GRID GENERATION
-------------------

General Integration Accuracy     IntAcc      ... 4.388
Radial Grid Type                 RadialGrid  ... OptM3 with GC (2021)
Angular Grid (max. ang.)         AngularGrid ... 4 (Lebedev-302)
Angular grid pruning method      GridPruning ... 4 (adaptive)
Weight generation scheme         WeightScheme... mBecke (2022)
Basis function cutoff            BFCut       ... 1.0000e-11
Integration weight cutoff        WCut        ... 1.0000e-14
Partially contracted basis set               ... off
Rotationally invariant grid construction     ... off
Angular grids for H and He will be reduced by one unit

Total number of grid points                  ...   226276
Total number of batches                      ...     3556
Average number of points per batch           ...       63
Average number of grid points per atom       ...     4814

--------------------
COSX GRID GENERATION
--------------------

GRIDX 1
-------
General Integration Accuracy     IntAcc      ... 3.816
Radial Grid Type                 RadialGrid  ... OptM3 with GC (2021)
Angular Grid (max. ang.)         AngularGrid ... 1 (Lebedev-50)
Angular grid pruning method      GridPruning ... 4 (adaptive)
Weight generation scheme         WeightScheme... mBecke (2022)
Basis function cutoff            BFCut       ... 1.0000e-11
Integration weight cutoff        WCut        ... 1.0000e-14
Partially contracted basis set               ... on
Rotationally invariant grid construction     ... off
Angular grids for H and He will be reduced by one unit

Total number of grid points                  ...    28742
Total number of batches                      ...      252
Average number of points per batch           ...      114
Average number of grid points per atom       ...      612
UseSFitting                                  ... on

GRIDX 2
-------
General Integration Accuracy     IntAcc      ... 4.020
Radial Grid Type                 RadialGrid  ... OptM3 with GC (2021)
Angular Grid (max. ang.)         AngularGrid ... 2 (Lebedev-110)
Angular grid pruning method      GridPruning ... 4 (adaptive)
Weight generation scheme         WeightScheme... mBecke (2022)
Basis function cutoff            BFCut       ... 1.0000e-11
Integration weight cutoff        WCut        ... 1.0000e-14
Partially contracted basis set               ... on
Rotationally invariant grid construction     ... off
Angular grids for H and He will be reduced by one unit

Total number of grid points                  ...    62753
Total number of batches                      ...      517
Average number of points per batch           ...      121
Average number of grid points per atom       ...     1335
UseSFitting                                  ... on

GRIDX 3
-------
General Integration Accuracy     IntAcc      ... 4.338
Radial Grid Type                 RadialGrid  ... OptM3 with GC (2021)
Angular Grid (max. ang.)         AngularGrid ... 3 (Lebedev-194)
Angular grid pruning method      GridPruning ... 4 (adaptive)
Weight generation scheme         WeightScheme... mBecke (2022)
Basis function cutoff            BFCut       ... 1.0000e-11
Integration weight cutoff        WCut        ... 1.0000e-14
Partially contracted basis set               ... on
Rotationally invariant grid construction     ... off
Angular grids for H and He will be reduced by one unit

Total number of grid points                  ...   137471
Total number of batches                      ...     1095
Average number of points per batch           ...      125
Average number of grid points per atom       ...     2925
UseSFitting                                  ... on
Grids setup in   8.3 sec
Initializing property integral containers    ... done (  0.0 sec)

SHARK setup successfully completed in   8.9 seconds

Maximum memory used throughout the entire STARTUP-calculation: 91.6 MB
Occupation numbers will be reassigned to an Aufbau configuration
             **** ENERGY FILE WAS UPDATED (curcumin.en.tmp) ****
Finished Guess after   0.2 sec
Maximum memory used throughout the entire GUESS-calculation: 30.3 MB
----------------------------------------D-I-I-S--------------------------------------------
Iteration    Energy (Eh)           Delta-E    RMSDP     MaxDP     DIISErr   Damp  Time(sec)
-------------------------------------------------------------------------------------------
               ***  Starting incremental Fock matrix formation  ***
    1    -1262.8093044784727681     0.00e+00  5.90e-05  1.78e-03  1.05e-02  0.700  34.8
    2    -1262.8098264357167864    -5.22e-04  5.60e-05  1.66e-03  8.38e-03  0.700  12.2
                               ***Turning on AO-DIIS***
    3    -1262.8102449460193384    -4.19e-04  4.77e-05  1.38e-03  6.33e-03  0.700  12.0
    4    -1262.8105563643302958    -3.11e-04  1.23e-04  3.51e-03  4.60e-03  0.000  11.6
                              *** Initializing SOSCF ***
---------------------------------------S-O-S-C-F--------------------------------------
Iteration    Energy (Eh)           Delta-E    RMSDP     MaxDP     MaxGrad    Time(sec)
--------------------------------------------------------------------------------------
    5    -1262.8113416874662107    -7.85e-04  7.99e-06  2.06e-04  2.18e-04    13.1
               *** Restarting incremental Fock matrix formation ***
    6    -1262.8113454824374458    -3.79e-06  5.99e-06  2.17e-04  6.05e-05    34.1
    7    -1262.8113458508964868    -3.68e-07  5.03e-06  2.68e-04  3.95e-05    17.0
    8    -1262.8113457818162715     6.91e-08  3.17e-06  1.32e-04  4.53e-05    16.2
    9    -1262.8113459671099008    -1.85e-07  4.33e-07  1.62e-05  2.67e-06    15.4
   10    -1262.8113459746373337    -7.53e-09  2.71e-07  9.66e-06  4.29e-06    10.6
                 **** Energy Check signals convergence ****

               *****************************************************
               *                     SUCCESS                       *
               *           SCF CONVERGED AFTER  10 CYCLES          *
               *****************************************************

Recomputing exchange energy using gridx3       ... done (   57.996 sec)
Old exchange energy                            :    -33.083306807 Eh
New exchange energy                            :    -33.083356391 Eh
Exchange energy change after final integration :     -0.000049584 Eh
Total energy after final integration           :  -1262.811395552 Eh
             **** ENERGY FILE WAS UPDATED (curcumin.en.tmp) ****

----------------
TOTAL SCF ENERGY
----------------

Total Energy       :      -1262.81139555203458 Eh          -34362.84505 eV

Components:
Nuclear Repulsion  :       2152.40329478610010 Eh           58569.87129 eV
Electronic Energy  :      -3415.21464075441963 Eh          -92932.71498 eV
One Electron Energy:      -5998.17131598119704 Eh         -163218.53938 eV
Two Electron Energy:       2582.95667522677741 Eh           70285.82440 eV

Virial components:
Potential Energy   :      -2518.26279336167772 Eh          -68525.41437 eV
Kinetic Energy     :       1255.45139780964337 Eh           34162.56933 eV
Virial Ratio       :          2.00586243143720

DFT components:
N(Alpha)           :       96.999858815764 electrons
N(Beta)            :       96.999858815764 electrons
N(Total)           :      193.999717631527 electrons
E(X)               :     -131.495165183154 Eh       
E(C)               :       -7.826727093425 Eh       
E(XC)              :     -139.321892276579 Eh       

---------------
SCF CONVERGENCE
---------------

  Last Energy change         ...    7.5274e-09  Tolerance :   1.0000e-08
  Last MAX-Density change    ...    9.6627e-06  Tolerance :   1.0000e-07
  Last RMS-Density change    ...    2.7107e-07  Tolerance :   5.0000e-09
  Last DIIS Error            ...    2.1803e-04  Tolerance :   5.0000e-07
  Last Orbital Gradient      ...    4.2912e-06  Tolerance :   1.0000e-05
  Last Orbital Rotation      ...    1.0496e-05  Tolerance :   1.0000e-05


Total SCF time: 0 days 0 hours 4 min 5 sec 
Finished LeanSCF after 245.9 sec

Maximum memory used throughout the entire LEANSCF-calculation: 59.5 MB

-------------------------   --------------------
FINAL SINGLE POINT ENERGY     -1262.811395552035
-------------------------   --------------------

------------------------------------------------------------------------------
                         ORCA SCF GRADIENT CALCULATION
------------------------------------------------------------------------------

Nuc. rep. gradient        (SHARK) ... done (  0.0 sec)
HCore & Overlap gradient  (SHARK) ... done (  2.1 sec)
Split-RIJ-J gradient      (SHARK) ... done ( 10.5 sec)
COSX-gradient                     ... done (113.2 sec)
XC gradient                       ... done ( 24.2 sec)

------------------
CARTESIAN GRADIENT
------------------

   1   C   :    0.000058062    0.000074383   -0.000025027
   2   O   :   -0.000025016   -0.000092716    0.000040800
   3   C   :    0.000149001   -0.000071588   -0.000347270
   4   C   :    0.000026755    0.000041186    0.000122461
   5   C   :    0.000094336    0.000078906   -0.000042199
   6   C   :   -0.000093309   -0.000141026    0.000066416
   7   C   :   -0.000073476    0.000005320    0.000018206
   8   C   :    0.000442720    0.000035893   -0.000385162
   9   O   :   -0.000217734    0.000040708    0.000104148
  10   C   :    0.000042811    0.000166209    0.000123238
  11   C   :   -0.000239788   -0.000173428    0.000519206
  12   O   :    0.000096864   -0.000064095   -0.000237611
  13   C   :   -0.000021008    0.000048570   -0.000154583
  14   C   :   -0.000110810    0.000147819   -0.000101937
  15   C   :    0.000120339   -0.000094525    0.000107550
  16   C   :    0.000055660   -0.000042795    0.000108659
  17   C   :   -0.000139390    0.000193536   -0.000375689
  18   C   :    0.000082168   -0.000227045    0.000557496
  19   O   :    0.000161779   -0.000000548   -0.000281251
  20   C   :    0.000044130   -0.000004315   -0.000112683
  21   O   :   -0.000094091    0.000026364   -0.000013667
  22   C   :    0.000084753   -0.000004985   -0.000029027
  23   C   :   -0.000083703    0.000088121   -0.000018379
  24   C   :   -0.000094261   -0.000154975    0.000007361
  25   C   :    0.000250665    0.000073974   -0.000358493
  26   C   :   -0.000522947    0.000028103    0.000758936
  27   O   :    0.000206453    0.000177990   -0.000230747
  28   H   :    0.000020486   -0.000088964   -0.000001858
  29   H   :   -0.000032594   -0.000040697   -0.000062736
  30   H   :   -0.000046061    0.000032790    0.000077580
  31   H   :    0.000027144    0.000047995   -0.000008977
  32   H   :   -0.000013060    0.000083345   -0.000030029
  33   H   :    0.000009390    0.000015389   -0.000008358
  34   H   :   -0.000009032    0.000082582   -0.000098758
  35   H   :   -0.000003473   -0.000132955    0.000057492
  36   H   :    0.000010382   -0.000064310    0.000037549
  37   H   :    0.000025022   -0.000057535    0.000022749
  38   H   :   -0.000000561    0.000017253   -0.000006413
  39   H   :   -0.000009482   -0.000028337    0.000023545
  40   H   :   -0.000077801    0.000024273    0.000061826
  41   H   :   -0.000032089    0.000074416   -0.000018043
  42   H   :    0.000032301   -0.000046027    0.000072415
  43   H   :   -0.000094728    0.000003161   -0.000010116
  44   H   :    0.000041297   -0.000019213    0.000010163
  45   H   :   -0.000003385    0.000037343   -0.000004049
  46   H   :   -0.000018476   -0.000003509    0.000028218
  47   H   :   -0.000026245   -0.000092040    0.000037047

Difference to translation invariance:
           :   -0.0000000001   -0.0000000001   -0.0000000000

Difference to rotation invariance:
           :   -0.0001414922    0.0002289703    0.0001976367

Norm of the Cartesian gradient     ...    0.0018178579
RMS gradient                       ...    0.0001530913
MAX gradient                       ...    0.0007589357

-------
TIMINGS
-------

Total SCF gradient time     ....      149.975 sec

Densities                   ....       0.008 sec  (  0.0%)
One electron gradient       ....       2.107 sec  (  1.4%)
RI-J Coulomb gradient       ....      10.479 sec  (  7.0%)
COSX gradient               ....     113.219 sec  ( 75.5%)
XC gradient                 ....      24.162 sec  ( 16.1%)

Maximum memory used throughout the entire SCFGRAD-calculation: 66.8 MB
------------------------------------------------------------------------------
                         ORCA GEOMETRY RELAXATION STEP
------------------------------------------------------------------------------

Reading the OPT-File                    .... done
Getting information on internals        .... done
Copying old internal coords+grads       .... done
Making the new internal coordinates     .... (2022 redundants) done
Validating the new internal coordinates .... (2022 redundants) done
Calculating the B-matrix                .... done
Calculating the G,G- and P matrices     .... done
Transforming gradient to internals      .... done
Projecting the internal gradient        .... done
Number of atoms                         ....  47
Number of internal coordinates          .... 220
Current Energy                          .... -1262.811395552 Eh
Current gradient norm                   ....     0.001817858 Eh/bohr
Maximum allowed component of the step   ....  0.300
Current trust radius                    ....  0.467
Updating the Hessian (BFGS)             .... done
Forming the augmented Hessian           .... done
Diagonalizing the augmented Hessian     .... done
Last element of RFO vector              ....  0.999889141
Lowest eigenvalues of augmented Hessian:
 -0.000007874  0.003827174  0.012592509  0.012675845  0.012794779
Length of the computed step             ....  0.014891422
The final length of the internal step   ....  0.014891422
Converting the step to Cartesian space:
 Initial RMS(Int)=    0.0010039795
Transforming coordinates:
 Iter   0:  RMS(Cart)=    0.0127231464 RMS(Int)=    0.7336603768
done
Storing new coordinates                 .... done
The predicted energy change is          ....    -0.000003938
Previously predicted energy change      ....    -0.000090340
Actually observed energy change         ....    -0.000101027
Ratio of predicted to observed change   ....     1.118300088
New trust radius                        ....     0.700000000

                                .--------------------.
          ----------------------|Geometry convergence|-------------------------
          Item                value                   Tolerance       Converged
          ---------------------------------------------------------------------
          Energy change      -0.0001010274            0.0000050000      NO
          RMS gradient        0.0000919053            0.0001000000      YES
          MAX gradient        0.0003676537            0.0003000000      NO
          RMS step            0.0010039795            0.0020000000      YES
          MAX step            0.0046473088            0.0040000000      NO
          -------------------------------------------------------------------------
          ........................................................
          Max(Bonds)      0.0003      Max(Angles)    0.08
          Max(Dihed)        0.27      Max(Improp)    0.00
          ---------------------------------------------------------------------

The optimization has not yet converged - more geometry cycles are needed


    ---------------------------------------------------------------------------
                         Redundant Internal Coordinates
                            (Angstroem and degrees)

        Definition                    Value    dE/dq     Step     New-Value
    ----------------------------------------------------------------------------
     1. B(O   1,C   0)                1.4184 -0.000015  0.0000    1.4184   
     2. B(C   2,O   1)                1.3615  0.000112 -0.0001    1.3614   
     3. B(C   3,C   2)                1.3913  0.000113 -0.0001    1.3912   
     4. B(C   4,C   3)                1.4142  0.000020 -0.0000    1.4142   
     5. B(C   5,C   4)                1.4566 -0.000035  0.0000    1.4566   
     6. B(C   6,C   5)                1.3520  0.000040 -0.0000    1.3519   
     7. B(C   7,C   6)                1.4760 -0.000034  0.0000    1.4761   
     8. B(O   8,C   7)                1.2270  0.000227 -0.0001    1.2268   
     9. B(C   9,C   7)                1.5335 -0.000196  0.0003    1.5338   
    10. B(C  10,C   9)                1.5368 -0.000177  0.0003    1.5371   
    11. B(O  11,C  10)                1.2257  0.000260 -0.0002    1.2256   
    12. B(C  12,C  10)                1.4758  0.000004 -0.0000    1.4758   
    13. B(C  13,C  12)                1.3520  0.000026 -0.0000    1.3520   
    14. B(C  14,C  13)                1.4555 -0.000104  0.0001    1.4556   
    15. B(C  15,C  14)                1.4020  0.000024 -0.0000    1.4020   
    16. B(C  16,C  15)                1.3951  0.000040 -0.0001    1.3950   
    17. B(C  17,C  16)                1.3929  0.000077 -0.0001    1.3928   
    18. B(O  18,C  17)                1.3604 -0.000055  0.0000    1.3605   
    19. B(C  19,C  17)                1.4199 -0.000146  0.0002    1.4201   
    20. B(O  20,C  19)                1.3606  0.000076 -0.0001    1.3605   
    21. B(C  21,O  20)                1.4193 -0.000002  0.0000    1.4193   
    22. B(C  22,C  19)                1.3883  0.000007 -0.0000    1.3883   
    23. B(C  22,C  14)                1.4156  0.000045 -0.0000    1.4155   
    24. B(C  23,C   4)                1.4039  0.000005  0.0000    1.4039   
    25. B(C  24,C  23)                1.3920 -0.000073  0.0001    1.3920   
    26. B(C  25,C  24)                1.3965  0.000203 -0.0002    1.3964   
    27. B(C  25,C   2)                1.4150 -0.000324  0.0003    1.4153   
    28. B(O  26,C  25)                1.3608 -0.000016 -0.0000    1.3608   
    29. B(H  27,C   0)                1.0985 -0.000012  0.0000    1.0986   
    30. B(H  28,C   0)                1.0985  0.000002 -0.0000    1.0985   
    31. B(H  29,C   0)                1.0916  0.000007 -0.0000    1.0916   
    32. B(H  30,C   3)                1.0846 -0.000012  0.0000    1.0846   
    33. B(H  31,C   5)                1.0903 -0.000006  0.0000    1.0903   
    34. B(H  32,C   6)                1.0871  0.000012 -0.0000    1.0870   
    35. B(H  33,C   9)                1.0938 -0.000017  0.0000    1.0939   
    36. B(H  34,C   9)                1.0945 -0.000042  0.0001    1.0945   
    37. B(H  35,C  12)                1.0871  0.000030 -0.0000    1.0870   
    38. B(H  36,C  13)                1.0901 -0.000003  0.0000    1.0901   
    39. B(H  37,C  15)                1.0865  0.000003 -0.0000    1.0865   
    40. B(H  38,C  16)                1.0887 -0.000031  0.0001    1.0888   
    41. B(H  39,O  18)                0.9705 -0.000038  0.0001    0.9706   
    42. B(H  40,C  21)                1.0984 -0.000013  0.0000    1.0984   
    43. B(H  41,C  21)                1.0916  0.000007 -0.0000    1.0916   
    44. B(H  42,C  21)                1.0983 -0.000003  0.0000    1.0983   
    45. B(H  43,C  22)                1.0832  0.000027 -0.0000    1.0832   
    46. B(H  44,C  23)                1.0852  0.000026 -0.0000    1.0852   
    47. B(H  45,C  24)                1.0888 -0.000032  0.0001    1.0889   
    48. B(H  46,O  26)                0.9705 -0.000040  0.0001    0.9705   
    49. A(O   1,C   0,H  28)          111.58 -0.000065    0.01    111.59   
    50. A(H  27,C   0,H  28)          109.20  0.000094   -0.03    109.17   
    51. A(H  28,C   0,H  29)          109.29 -0.000060    0.02    109.30   
    52. A(H  27,C   0,H  29)          109.29 -0.000071    0.02    109.31   
    53. A(O   1,C   0,H  29)          105.84  0.000130   -0.03    105.81   
    54. A(O   1,C   0,H  27)          111.56 -0.000031    0.01    111.56   
    55. A(C   0,O   1,C   2)          117.94 -0.000091    0.02    117.96   
    56. A(O   1,C   2,C   3)          125.54  0.000042   -0.01    125.53   
    57. A(O   1,C   2,C  25)          115.50  0.000029   -0.01    115.50   
    58. A(C   3,C   2,C  25)          118.96 -0.000071    0.01    118.97   
    59. A(C   4,C   3,H  30)          118.36 -0.000049    0.01    118.37   
    60. A(C   2,C   3,H  30)          119.86  0.000062   -0.01    119.85   
    61. A(C   2,C   3,C   4)          121.78 -0.000013    0.00    121.78   
    62. A(C   3,C   4,C  23)          118.29  0.000023   -0.01    118.28   
    63. A(C   3,C   4,C   5)          118.33 -0.000098    0.01    118.34   
    64. A(C   5,C   4,C  23)          123.39  0.000075   -0.01    123.38   
    65. A(C   4,C   5,H  31)          116.06  0.000052   -0.01    116.05   
    66. A(C   4,C   5,C   6)          128.38  0.000041    0.00    128.38   
    67. A(C   6,C   5,H  31)          115.56 -0.000092    0.01    115.57   
    68. A(C   5,C   6,H  32)          122.35  0.000080   -0.01    122.34   
    69. A(C   7,C   6,H  32)          117.07  0.000049   -0.01    117.06   
    70. A(C   5,C   6,C   7)          120.58 -0.000128    0.02    120.60   
    71. A(O   8,C   7,C   9)          120.51 -0.000118    0.02    120.54   
    72. A(C   6,C   7,C   9)          116.00  0.000279   -0.05    115.95   
    73. A(C   6,C   7,O   8)          123.46 -0.000162    0.03    123.49   
    74. A(H  33,C   9,H  34)          110.31 -0.000019   -0.02    110.29   
    75. A(C   7,C   9,H  34)          107.48 -0.000022   -0.00    107.48   
    76. A(C   7,C   9,C  10)          110.12 -0.000331    0.08    110.20   
    77. A(C  10,C   9,H  34)          110.36  0.000250   -0.06    110.29   
    78. A(C   7,C   9,H  33)          111.10  0.000153   -0.02    111.07   
    79. A(C  10,C   9,H  33)          107.50 -0.000028    0.02    107.52   
    80. A(O  11,C  10,C  12)          123.67 -0.000187    0.03    123.70   
    81. A(C   9,C  10,C  12)          115.75  0.000368   -0.06    115.69   
    82. A(C   9,C  10,O  11)          120.57 -0.000180    0.03    120.60   
    83. A(C  10,C  12,H  35)          116.82  0.000028   -0.01    116.82   
    84. A(C  13,C  12,H  35)          122.50  0.000149   -0.02    122.48   
    85. A(C  10,C  12,C  13)          120.68 -0.000178    0.03    120.70   
    86. A(C  14,C  13,H  36)          115.88 -0.000027   -0.00    115.88   
    87. A(C  12,C  13,H  36)          115.75 -0.000154    0.02    115.76   
    88. A(C  12,C  13,C  14)          128.37  0.000181   -0.02    128.35   
    89. A(C  15,C  14,C  22)          118.35  0.000005   -0.00    118.35   
    90. A(C  13,C  14,C  22)          122.77  0.000184   -0.03    122.74   
    91. A(C  13,C  14,C  15)          118.88 -0.000189    0.03    118.91   
    92. A(C  16,C  15,H  37)          119.65 -0.000041    0.01    119.65   
    93. A(C  14,C  15,H  37)          119.60 -0.000015    0.00    119.60   
    94. A(C  14,C  15,C  16)          120.75  0.000056   -0.01    120.74   
    95. A(C  17,C  16,H  38)          119.23  0.000080   -0.01    119.22   
    96. A(C  15,C  16,H  38)          120.18  0.000091   -0.01    120.17   
    97. A(C  15,C  16,C  17)          120.59 -0.000172    0.03    120.62   
    98. A(O  18,C  17,C  19)          116.97  0.000129   -0.02    116.94   
    99. A(C  16,C  17,C  19)          119.61  0.000167   -0.03    119.59   
   100. A(C  16,C  17,O  18)          123.42 -0.000296    0.05    123.47   
   101. A(C  17,O  18,H  39)          108.62  0.000172   -0.03    108.59   
   102. A(O  20,C  19,C  22)          125.51  0.000083   -0.01    125.50   
   103. A(C  17,C  19,C  22)          119.31 -0.000032    0.01    119.32   
   104. A(C  17,C  19,O  20)          115.18 -0.000051    0.01    115.18   
   105. A(C  19,O  20,C  21)          117.93 -0.000098    0.02    117.95   
   106. A(H  41,C  21,H  42)          109.35 -0.000068    0.02    109.37   
   107. A(H  40,C  21,H  42)          109.21  0.000100   -0.03    109.18   
   108. A(H  40,C  21,H  41)          109.34 -0.000047    0.01    109.35   
   109. A(O  20,C  21,H  41)          105.82  0.000128   -0.03    105.80   
   110. A(O  20,C  21,H  40)          111.50 -0.000077    0.01    111.52   
   111. A(O  20,C  21,H  42)          111.54 -0.000039    0.01    111.54   
   112. A(C  14,C  22,C  19)          121.38 -0.000024    0.01    121.38   
   113. A(C  19,C  22,H  43)          119.51  0.000049   -0.01    119.50   
   114. A(C  14,C  22,H  43)          119.11 -0.000026    0.01    119.12   
   115. A(C   4,C  23,C  24)          120.37  0.000020   -0.00    120.37   
   116. A(C  24,C  23,H  44)          119.23  0.000013   -0.00    119.23   
   117. A(C   4,C  23,H  44)          120.39 -0.000034    0.01    120.40   
   118. A(C  25,C  24,H  45)          119.00  0.000059   -0.01    118.99   
   119. A(C  23,C  24,H  45)          119.99  0.000078   -0.01    119.97   
   120. A(C  23,C  24,C  25)          121.02 -0.000137    0.02    121.04   
   121. A(C  24,C  25,O  26)          123.22 -0.000366    0.06    123.28   
   122. A(C   2,C  25,O  26)          117.19  0.000188   -0.03    117.16   
   123. A(C   2,C  25,C  24)          119.59  0.000178   -0.03    119.56   
   124. A(C  25,O  26,H  46)          108.67  0.000163   -0.03    108.64   
   125. D(C   2,O   1,C   0,H  27)    -61.21 -0.000037    0.05    -61.16   
   126. D(C   2,O   1,C   0,H  28)     61.24  0.000015    0.03     61.27   
   127. D(C   2,O   1,C   0,H  29)   -179.98 -0.000013    0.04   -179.94   
   128. D(C   3,C   2,O   1,C   0)     -0.09  0.000019   -0.05     -0.14   
   129. D(C  25,C   2,O   1,C   0)    179.90  0.000008   -0.03    179.87   
   130. D(H  30,C   3,C   2,C  25)    179.96  0.000006   -0.01    179.95   
   131. D(C   4,C   3,C   2,C  25)     -0.14  0.000013   -0.02     -0.16   
   132. D(H  30,C   3,C   2,O   1)     -0.05 -0.000006    0.01     -0.04   
   133. D(C   4,C   3,C   2,O   1)    179.85  0.000001    0.00    179.85   
   134. D(C  23,C   4,C   3,C   2)      0.20 -0.000004   -0.00      0.20   
   135. D(C  23,C   4,C   3,H  30)   -179.90  0.000003   -0.01   -179.91   
   136. D(C   5,C   4,C   3,H  30)     -0.06 -0.000002   -0.01     -0.07   
   137. D(C   5,C   4,C   3,C   2)   -179.96 -0.000008    0.00   -179.96   
   138. D(C   6,C   5,C   4,C   3)    177.21 -0.000046    0.26    177.46   
   139. D(C   6,C   5,C   4,C  23)     -2.96 -0.000051    0.26     -2.70   
   140. D(H  31,C   5,C   4,C   3)     -2.55 -0.000049    0.26     -2.28   
   141. D(H  31,C   5,C   4,C  23)    177.29 -0.000054    0.27    177.55   
   142. D(H  32,C   6,C   5,C   4)     -0.08 -0.000009    0.04     -0.04   
   143. D(H  32,C   6,C   5,H  31)    179.68 -0.000006    0.03    179.71   
   144. D(C   7,C   6,C   5,H  31)     -0.38  0.000007   -0.00     -0.39   
   145. D(C   7,C   6,C   5,C   4)    179.86  0.000004    0.00    179.87   
   146. D(C   9,C   7,C   6,H  32)     -1.87  0.000022    0.02     -1.85   
   147. D(C   9,C   7,C   6,C   5)    178.18  0.000010    0.05    178.23   
   148. D(O   8,C   7,C   6,H  32)    176.28 -0.000043    0.11    176.38   
   149. D(O   8,C   7,C   6,C   5)     -3.67 -0.000055    0.14     -3.53   
   150. D(H  34,C   9,C   7,C   6)   -163.31 -0.000003   -0.01   -163.33   
   151. D(H  33,C   9,C   7,O   8)    139.24  0.000115   -0.14    139.10   
   152. D(H  33,C   9,C   7,C   6)    -42.55  0.000051   -0.05    -42.60   
   153. D(C  10,C   9,C   7,O   8)   -101.77 -0.000036   -0.07   -101.84   
   154. D(C  10,C   9,C   7,C   6)     76.43 -0.000100    0.02     76.45   
   155. D(O  11,C  10,C   9,C   7)   -108.70  0.000020   -0.21   -108.91   
   156. D(C  12,C  10,C   9,H  33)   -168.68  0.000027   -0.23   -168.91   
   157. D(C  12,C  10,C   9,C   7)     70.16  0.000054   -0.27     69.89   
   158. D(O  11,C  10,C   9,H  34)    132.79  0.000099   -0.21    132.58   
   159. D(O  11,C  10,C   9,H  33)     12.45 -0.000007   -0.17     12.29   
   160. D(H  35,C  12,C  10,C   9)     -2.68 -0.000019    0.06     -2.62   
   161. D(H  35,C  12,C  10,O  11)    176.14  0.000016    0.00    176.14   
   162. D(C  13,C  12,C  10,C   9)    177.61 -0.000027    0.08    177.69   
   163. D(C  13,C  12,C  10,O  11)     -3.57  0.000009    0.03     -3.54   
   164. D(H  36,C  13,C  12,H  35)   -179.83  0.000039   -0.05   -179.89   
   165. D(H  36,C  13,C  12,C  10)     -0.14  0.000047   -0.08     -0.22   
   166. D(C  14,C  13,C  12,H  35)      0.27  0.000021   -0.01      0.26   
   167. D(C  14,C  13,C  12,C  10)    179.96  0.000029   -0.03    179.93   
   168. D(C  22,C  14,C  13,C  12)     -1.30  0.000033   -0.10     -1.40   
   169. D(C  22,C  14,C  13,H  36)    178.80  0.000015   -0.06    178.74   
   170. D(C  15,C  14,C  13,C  12)    178.84  0.000042   -0.11    178.73   
   171. D(C  15,C  14,C  13,H  36)     -1.06  0.000024   -0.07     -1.12   
   172. D(H  37,C  15,C  14,C  22)   -179.95 -0.000005    0.01   -179.95   
   173. D(H  37,C  15,C  14,C  13)     -0.09 -0.000013    0.01     -0.07   
   174. D(C  16,C  15,C  14,C  22)      0.06 -0.000021    0.04      0.10   
   175. D(C  16,C  15,C  14,C  13)    179.93 -0.000029    0.05    179.97   
   176. D(H  38,C  16,C  15,H  37)      0.01  0.000002   -0.01     -0.00   
   177. D(H  38,C  16,C  15,C  14)    179.99  0.000019   -0.04    179.95   
   178. D(C  17,C  16,C  15,H  37)    179.98  0.000004   -0.01    179.97   
   179. D(C  17,C  16,C  15,C  14)     -0.04  0.000020   -0.04     -0.08   
   180. D(C  19,C  17,C  16,H  38)    179.93 -0.000007    0.02    179.95   
   181. D(C  19,C  17,C  16,C  15)     -0.04 -0.000008    0.02     -0.02   
   182. D(O  18,C  17,C  16,H  38)     -0.01 -0.000008    0.02      0.01   
   183. D(O  18,C  17,C  16,C  15)   -179.98 -0.000010    0.02   -179.96   
   184. D(H  39,O  18,C  17,C  19)   -179.91  0.000003   -0.01   -179.92   
   185. D(H  39,O  18,C  17,C  16)      0.04  0.000005   -0.01      0.03   
   186. D(O  20,C  19,C  17,O  18)      0.06 -0.000009    0.02      0.08   
   187. D(O  20,C  19,C  17,C  16)   -179.89 -0.000010    0.02   -179.87   
   188. D(C  22,C  19,C  17,O  18)   -179.97 -0.000001    0.00   -179.96   
   189. D(C  22,C  19,C  17,C  16)      0.09 -0.000002    0.00      0.09   
   190. D(C  21,O  20,C  19,C  22)      0.05  0.000018   -0.04      0.01   
   191. D(C  21,O  20,C  19,C  17)   -179.97  0.000025   -0.06   -180.03   
   192. D(H  42,C  21,O  20,C  19)    -61.29 -0.000042    0.07    -61.22   
   193. D(H  41,C  21,O  20,C  19)    179.89 -0.000016    0.06    179.95   
   194. D(H  40,C  21,O  20,C  19)     61.10  0.000004    0.05     61.15   
   195. D(H  43,C  22,C  19,O  20)      0.16  0.000010   -0.03      0.13   
   196. D(H  43,C  22,C  19,C  17)   -179.81  0.000002   -0.01   -179.82   
   197. D(C  14,C  22,C  19,O  20)    179.91  0.000010   -0.02    179.89   
   198. D(C  14,C  22,C  19,C  17)     -0.06  0.000002   -0.00     -0.06   
   199. D(H  43,C  22,C  14,C  15)    179.74  0.000010   -0.01    179.73   
   200. D(H  43,C  22,C  14,C  13)     -0.12  0.000019   -0.01     -0.14   
   201. D(C  19,C  22,C  14,C  15)     -0.01  0.000010   -0.02     -0.03   
   202. D(C  19,C  22,C  14,C  13)   -179.87  0.000019   -0.03   -179.90   
   203. D(H  44,C  23,C   4,C   5)     -0.31 -0.000004    0.04     -0.28   
   204. D(H  44,C  23,C   4,C   3)    179.52 -0.000009    0.04    179.56   
   205. D(C  24,C  23,C   4,C   5)   -179.95  0.000003    0.01   -179.94   
   206. D(C  24,C  23,C   4,C   3)     -0.12 -0.000002    0.01     -0.11   
   207. D(H  45,C  24,C  23,H  44)      0.24  0.000010   -0.03      0.21   
   208. D(H  45,C  24,C  23,C   4)    179.88  0.000003   -0.00    179.88   
   209. D(C  25,C  24,C  23,H  44)   -179.67  0.000005   -0.02   -179.69   
   210. D(C  25,C  24,C  23,C   4)     -0.03 -0.000002    0.01     -0.02   
   211. D(O  26,C  25,C  24,H  45)      0.10 -0.000000   -0.01      0.09   
   212. D(O  26,C  25,C  24,C  23)   -179.99  0.000004   -0.01   -180.00   
   213. D(C   2,C  25,C  24,H  45)   -179.81  0.000006   -0.02   -179.84   
   214. D(C   2,C  25,C  24,C  23)      0.10  0.000011   -0.03      0.06   
   215. D(O  26,C  25,C   2,C   3)   -179.93 -0.000010    0.02   -179.91   
   216. D(O  26,C  25,C   2,O   1)      0.08  0.000001   -0.00      0.08   
   217. D(C  24,C  25,C   2,C   3)     -0.01 -0.000016    0.04      0.03   
   218. D(C  24,C  25,C   2,O   1)    180.00 -0.000005    0.02    180.01   
   219. D(H  46,O  26,C  25,C  24)      0.04  0.000030   -0.07     -0.03   
   220. D(H  46,O  26,C  25,C   2)    179.96  0.000023   -0.06    179.90   
    ----------------------------------------------------------------------------

Geometry step timings:
Preparation and reading OPT file:      0.011 s (33.333 %)
Internal coordinates            :      0.000 s ( 0.000 %)
B/P matrices and projection     :      0.007 s (21.212 %)
Hessian update/contruction      :      0.003 s ( 9.091 %)
Making the step                 :      0.006 s (18.182 %)
Converting the step to Cartesian:      0.001 s ( 3.030 %)
Storing new data                :      0.000 s ( 0.000 %)
Checking convergence            :      0.000 s ( 0.000 %)
Final printing                  :      0.005 s (15.152 %)
Total time                      :      0.033 s

Time for energy+gradient        :    405.388 s
Time for complete geometry iter :    405.515 s

         *************************************************************
         *                GEOMETRY OPTIMIZATION CYCLE  10            *
         *************************************************************
---------------------------------
CARTESIAN COORDINATES (ANGSTROEM)
---------------------------------
  C     -1.472347   -7.441934    1.848046
  O     -0.669903   -7.663985    0.699701
  C      0.105636   -6.637360    0.254689
  C      0.181321   -5.372992    0.830039
  C      1.018921   -4.363307    0.301989
  C      1.040749   -3.066363    0.964659
  C      1.792288   -1.983232    0.665107
  C      1.672737   -0.743422    1.457158
  O      0.864462   -0.597542    2.368461
  C      2.605113    0.404802    1.051244
  C      2.084956    1.084878   -0.225282
  O      2.674539    0.945845   -1.290665
  C      0.843903    1.868650   -0.072399
  C      0.322394    2.546898   -1.119289
  C     -0.881709    3.363851   -1.156635
  C     -1.228144    4.006121   -2.353727
  C     -2.374118    4.797744   -2.432508
  C     -3.198658    4.964594   -1.322496
  O     -4.328915    5.721751   -1.334478
  C     -2.867856    4.321609   -0.100326
  O     -3.735462    4.543470    0.923844
  C     -3.461292    3.927946    2.172962
  C     -1.724371    3.537285   -0.032548
  C      1.784226   -4.661981   -0.836412
  C      1.714026   -5.923567   -1.420515
  C      0.886764   -6.916621   -0.892046
  O      0.782968   -8.164144   -1.425729
  H     -0.860463   -7.196914    2.726898
  H     -2.202802   -6.638495    1.681619
  H     -2.001798   -8.379682    2.026871
  H     -0.411760   -5.143386    1.708647
  H      0.368050   -2.951775    1.815025
  H      2.502826   -1.977927   -0.157559
  H      3.613588    0.036988    0.840923
  H      2.626892    1.119256    1.880136
  H      0.379403    1.864776    0.910360
  H      0.876941    2.473660   -2.054950
  H     -0.596317    3.886317   -3.229473
  H     -2.633895    5.292884   -3.366713
  H     -4.438560    6.099882   -2.221632
  H     -2.500826    4.264765    2.585875
  H     -4.269231    4.235379    2.839450
  H     -3.454234    2.832836    2.090029
  H     -1.470858    3.043177    0.897415
  H      2.433180   -3.910600   -1.274476
  H      2.308961   -6.147624   -2.304572
  H      1.364577   -8.219320   -2.200724

----------------------------
CARTESIAN COORDINATES (A.U.)
----------------------------
  NO LB      ZA    FRAG     MASS         X           Y           Z
   0 C     6.0000    0    12.011   -2.782332  -14.063216    3.492300
   1 O     8.0000    0    15.999   -1.265934  -14.482833    1.322243
   2 C     6.0000    0    12.011    0.199623  -12.542793    0.481293
   3 C     6.0000    0    12.011    0.342647  -10.153483    1.568546
   4 C     6.0000    0    12.011    1.925482   -8.245455    0.570676
   5 C     6.0000    0    12.011    1.966731   -5.794586    1.822942
   6 C     6.0000    0    12.011    3.386934   -3.747765    1.256871
   7 C     6.0000    0    12.011    3.161015   -1.404864    2.753630
   8 O     8.0000    0    15.999    1.633596   -1.129190    4.475743
   9 C     6.0000    0    12.011    4.922950    0.764964    1.986563
  10 C     6.0000    0    12.011    3.939995    2.050122   -0.425721
  11 O     8.0000    0    15.999    5.054146    1.787387   -2.439003
  12 C     6.0000    0    12.011    1.594745    3.531236   -0.136815
  13 C     6.0000    0    12.011    0.609236    4.812939   -2.115149
  14 C     6.0000    0    12.011   -1.666188    6.356758   -2.185723
  15 C     6.0000    0    12.011   -2.320856    7.570472   -4.447900
  16 C     6.0000    0    12.011   -4.486432    9.066422   -4.596774
  17 C     6.0000    0    12.011   -6.044588    9.381724   -2.499155
  18 O     8.0000    0    15.999   -8.180463   10.812542   -2.521798
  19 C     6.0000    0    12.011   -5.419463    8.166657   -0.189588
  20 O     8.0000    0    15.999   -7.059000    8.585915    1.745812
  21 C     6.0000    0    12.011   -6.540894    7.422742    4.106303
  22 C     6.0000    0    12.011   -3.258590    6.684499   -0.061507
  23 C     6.0000    0    12.011    3.371698   -8.809868   -1.580589
  24 C     6.0000    0    12.011    3.239041  -11.193919   -2.684383
  25 C     6.0000    0    12.011    1.675741  -13.070519   -1.685723
  26 O     8.0000    0    15.999    1.479595  -15.427996   -2.694237
  27 H     1.0000    0     1.008   -1.626040  -13.600197    5.153090
  28 H     1.0000    0     1.008   -4.162693  -12.544938    3.177799
  29 H     1.0000    0     1.008   -3.782850  -15.835305    3.830231
  30 H     1.0000    0     1.008   -0.778113   -9.719590    3.228874
  31 H     1.0000    0     1.008    0.695515   -5.578045    3.429901
  32 H     1.0000    0     1.008    4.729655   -3.737741   -0.297743
  33 H     1.0000    0     1.008    6.828691    0.069898    1.589115
  34 H     1.0000    0     1.008    4.964106    2.115088    3.552942
  35 H     1.0000    0     1.008    0.716968    3.523916    1.720331
  36 H     1.0000    0     1.008    1.657179    4.674540   -3.883292
  37 H     1.0000    0     1.008   -1.126875    7.344075   -6.102820
  38 H     1.0000    0     1.008   -4.977341   10.002101   -6.362166
  39 H     1.0000    0     1.008   -8.387663   11.527106   -4.198275
  40 H     1.0000    0     1.008   -4.725876    8.059239    4.886595
  41 H     1.0000    0     1.008   -8.067678    8.003707    5.365783
  42 H     1.0000    0     1.008   -6.527556    5.353284    3.949582
  43 H     1.0000    0     1.008   -2.779520    5.750770    1.695868
  44 H     1.0000    0     1.008    4.598043   -7.389964   -2.408410
  45 H     1.0000    0     1.008    4.363305  -11.617327   -4.355011
  46 H     1.0000    0     1.008    2.578676  -15.532264   -4.158765

--------------------------------
INTERNAL COORDINATES (ANGSTROEM)
--------------------------------
 C      0   0   0     0.000000000000     0.00000000     0.00000000
 O      1   0   0     1.418420988250     0.00000000     0.00000000
 C      2   1   0     1.361416536798   117.96003248     0.00000000
 C      3   2   1     1.391180095367   125.53175356   359.85861699
 C      4   3   2     1.414169554240   121.78219657   179.85364255
 C      5   4   3     1.456596092770   118.34119426   180.04165907
 C      6   5   4     1.351929761619   128.38093782   177.46290296
 C      7   6   5     1.476064270489   120.59861722   179.86778645
 O      8   7   6     1.226810247143   123.49303549   356.47373935
 C      8   7   6     1.533788751438   115.94787517   178.23398307
 C     10   8   7     1.537070463115   110.20008535    76.45223037
 O     11  10   8     1.225552691616   120.59458027   251.08833056
 C     11  10   8     1.475765000293   115.69203308    69.89281419
 C     13  11  10     1.352024213792   120.70298556   177.69282914
 C     14  13  11     1.455565521831   128.35362140   179.92798770
 C     15  14  13     1.401983559893   118.91061867   178.73016713
 C     16  15  14     1.395037182655   120.74156353   179.97195537
 C     17  16  15     1.392779191620   120.61644054   359.92225522
 O     18  17  16     1.360481368800   123.46868384   180.03728428
 C     18  17  16     1.420056382696   119.58838104     0.00000000
 O     20  18  17     1.360472718890   115.18252021   180.12597471
 C     21  20  18     1.419272997894   117.94564079   179.96936794
 C     20  18  17     1.388277890228   119.32089907     0.08575914
 C      5   4   3     1.403870877465   118.27939936     0.19961200
 C     24   5   4     1.392013782674   120.37036331   359.89382379
 C     25  24   5     1.396351746187   121.03835312     0.00000000
 O     26  25  24     1.360846773699   123.27925168   179.99707615
 H      1   2   3     1.098552127779   111.56106537   298.84273043
 H      1   2   3     1.098533663964   111.59340099    61.26817697
 H      1   2   3     1.091636387005   105.81462581   180.06058986
 H      4   3   2     1.084626898740   119.84537117   359.96309307
 H      6   5   4     1.090310236576   116.05007574   357.71874690
 H      7   6   5     1.087047102998   122.34075223   359.96127192
 H     10   8   7     1.093866013665   111.07545050   317.40003218
 H     10   8   7     1.094523754731   107.47801145   196.67324036
 H     13  11  10     1.087009787455   116.81581703   357.37933082
 H     14  13  11     1.090114061466   115.76500054   359.78265402
 H     16  15  14     1.086503508745   119.60489966   359.92517463
 H     17  16  15     1.088754657749   120.16712423   179.95258280
 H     19  18  17     0.970591062944   108.58560266     0.03093020
 H     22  21  20     1.098380606764   111.51768232    61.15109911
 H     22  21  20     1.091552607387   105.79834917   179.94694256
 H     22  21  20     1.098268620427   111.54455413   298.78429637
 H     23  20  18     1.083163579547   119.49941095   180.17766073
 H     24   5   4     1.085179480851   120.40013795   179.55784007
 H     25  24   5     1.088902063767   119.97387042   179.87826175
 H     27  26  25     0.970531062504   108.63677967   359.96591065

---------------------------
INTERNAL COORDINATES (A.U.)
---------------------------
 C      0   0   0     0.000000000000     0.00000000     0.00000000
 O      1   0   0     2.680427210398     0.00000000     0.00000000
 C      2   1   0     2.572704408741   117.96003248     0.00000000
 C      3   2   1     2.628949383206   125.53175356   359.85861699
 C      4   3   2     2.672393164444   121.78219657   179.85364255
 C      5   4   3     2.752567703075   118.34119426   180.04165907
 C      6   5   4     2.554777001757   128.38093782   177.46290296
 C      7   6   5     2.789357227290   120.59861722   179.86778645
 O      8   7   6     2.318335385388   123.49303549   356.47373935
 C      8   7   6     2.898440687508   115.94787517   178.23398307
 C     10   8   7     2.904642223826   110.20008535    76.45223037
 O     11  10   8     2.315958949844   120.59458027   251.08833056
 C     11  10   8     2.788791688580   115.69203308    69.89281419
 C     13  11  10     2.554955490497   120.70298556   177.69282914
 C     14  13  11     2.750620206239   128.35362140   179.92798770
 C     15  14  13     2.649364972458   118.91061867   178.73016713
 C     16  15  14     2.636238221855   120.74156353   179.97195537
 C     17  16  15     2.631971237185   120.61644054   359.92225522
 O     18  17  16     2.570937197334   123.46868384   180.03728428
 C     18  17  16     2.683517658022   119.58838104     0.00000000
 O     20  18  17     2.570920851373   115.18252021   180.12597471
 C     21  20  18     2.682037275290   117.94564079   179.96936794
 C     20  18  17     2.623465010309   119.32089907     0.08575914
 C      5   4   3     2.652931485796   118.27939936     0.19961200
 C     24   5   4     2.630524823898   120.37036331   359.89382379
 C     25  24   5     2.638722386917   121.03835312     0.00000000
 O     26  25  24     2.571627712521   123.27925168   179.99707615
 H      1   2   3     2.075962665339   111.56106537   298.84273043
 H      1   2   3     2.075927773785   111.59340099    61.26817697
 H      1   2   3     2.062893809263   105.81462581   180.06058986
 H      4   3   2     2.049647796103   119.84537117   359.96309307
 H      6   5   4     2.060387748140   116.05007574   357.71874690
 H      7   6   5     2.054221319339   122.34075223   359.96127192
 H     10   8   7     2.067107193031   111.07545050   317.40003218
 H     10   8   7     2.068350143514   107.47801145   196.67324036
 H     13  11  10     2.054150803181   116.81581703   357.37933082
 H     14  13  11     2.060017030908   115.76500054   359.78265402
 H     16  15  14     2.053194075073   119.60489966   359.92517463
 H     17  16  15     2.057448130177   120.16712423   179.95258280
 H     19  18  17     1.834151296996   108.58560266     0.03093020
 H     22  21  20     2.075638537593   111.51768232    61.15109911
 H     22  21  20     2.062735488729   105.79834917   179.94694256
 H     22  21  20     2.075426914087   111.54455413   298.78429637
 H     23  20  18     2.046882523581   119.49941095   180.17766073
 H     24   5   4     2.050692024959   120.40013795   179.55784007
 H     25  24   5     2.057726687181   119.97387042   179.87826175
 H     27  26  25     1.834037912596   108.63677967   359.96591065

------------------------------------------------------------------------------
                   ___                                                        
                  /   \      - P O W E R E D   B Y -                         
                 /     \                                                     
                 |  |  |   _    _      __       _____    __    __             
                 |  |  |  | |  | |    /  \     |  _  \  |  |  /  |          
                  \  \/   | |  | |   /    \    | | | |  |  | /  /          
                 / \  \   | |__| |  /  /\  \   | |_| |  |  |/  /          
                |  |  |   |  __  | /  /__\  \  |    /   |      \           
                |  |  |   | |  | | |   __   |  |    \   |  |\   \          
                \     /   | |  | | |  |  |  |  | |\  \  |  | \   \       
                 \___/    |_|  |_| |__|  |__|  |_| \__\ |__|  \__/        
                                                                              
                      - O R C A' S   B I G   F R I E N D -                    
                                      &                                       
                       - I N T E G R A L  F E E D E R -                       
                                                                              
 v1 FN, 2020, v2 2021, v3 2022-2024                                           
------------------------------------------------------------------------------


----------------------
SHARK INTEGRAL PACKAGE
----------------------

Number of atoms                             ...     47
Number of basis functions                   ...    418
Number of shells                            ...    202
Maximum angular momentum                    ...      2
Integral batch strategy                     ... SHARK/LIBINT Hybrid
RI-J (if used) integral strategy            ... SPLIT-RIJ (Revised 2003 algorithm where possible)
Printlevel                                  ...      1
Contraction scheme used                     ... SEGMENTED contraction
Prescreening option                         ... SCHWARTZ
   Thresh                                   ... 2.500e-11
   Tcut                                     ... 2.500e-12
   Tpresel                                  ... 2.500e-12 
Coulomb Range Separation                    ... NOT USED
Exchange Range Separation                   ... NOT USED
Multipole approximations                    ... NOT USED
Finite Nucleus Model                        ... NOT USED
CABS basis                                  ... NOT available
Auxiliary Coulomb fitting basis             ... AVAILABLE
   # of basis functions in Aux-J            ...   1543
   # of shells in Aux-J                     ...    505
   Maximum angular momentum in Aux-J        ...      4
Auxiliary J/K fitting basis                 ... NOT available
Auxiliary Correlation fitting basis         ... NOT available
Auxiliary 'external' fitting basis          ... NOT available

Checking pre-screening integrals            ... done (  0.0 sec) Dimension = 202
   => SHARK Basis and OBASIS are compatible. Storing Pre-screening
Shell pair information
Shell pair cut-off parameter TPreSel        ...   2.5e-12
Total number of shell pairs                 ...     20503
Shell pairs after pre-screening             ...     10421
Total number of primitive shell pairs       ...    118482
Primitive shell pairs kept                  ...     33407
          la=0 lb=0:   3564 shell pairs
          la=1 lb=0:   3593 shell pairs
          la=1 lb=1:    918 shell pairs
          la=2 lb=0:   1435 shell pairs
          la=2 lb=1:    756 shell pairs
          la=2 lb=2:    155 shell pairs

Checking whether 4 symmetric matrices of dimension 418 fit in memory
:Max Core in MB      =   4096.00
 MB in use           =     16.48
 MB left             =   4079.52
 MB needed           =      2.67
 Data fit in memory  = YES
Calculating RI/J V-Matrix + Cholesky decomp.... done (  0.7 sec)
Calculating Nuclear repulsion               ... done (  0.0 sec) ENN=   2152.759441153585 Eh

Diagonalization of the overlap matrix:
Smallest eigenvalue                        ... 4.107e-04
Time for diagonalization                   ...    0.021 sec
Threshold for overlap eigenvalues          ... 1.000e-07
Number of eigenvalues below threshold      ... 0
Time for construction of square roots      ...    0.015 sec
Total time needed                          ...    0.038 sec

-------------------
DFT GRID GENERATION
-------------------

General Integration Accuracy     IntAcc      ... 4.388
Radial Grid Type                 RadialGrid  ... OptM3 with GC (2021)
Angular Grid (max. ang.)         AngularGrid ... 4 (Lebedev-302)
Angular grid pruning method      GridPruning ... 4 (adaptive)
Weight generation scheme         WeightScheme... mBecke (2022)
Basis function cutoff            BFCut       ... 1.0000e-11
Integration weight cutoff        WCut        ... 1.0000e-14
Partially contracted basis set               ... off
Rotationally invariant grid construction     ... off
Angular grids for H and He will be reduced by one unit

Total number of grid points                  ...   226268
Total number of batches                      ...     3555
Average number of points per batch           ...       63
Average number of grid points per atom       ...     4814

--------------------
COSX GRID GENERATION
--------------------

GRIDX 1
-------
General Integration Accuracy     IntAcc      ... 3.816
Radial Grid Type                 RadialGrid  ... OptM3 with GC (2021)
Angular Grid (max. ang.)         AngularGrid ... 1 (Lebedev-50)
Angular grid pruning method      GridPruning ... 4 (adaptive)
Weight generation scheme         WeightScheme... mBecke (2022)
Basis function cutoff            BFCut       ... 1.0000e-11
Integration weight cutoff        WCut        ... 1.0000e-14
Partially contracted basis set               ... on
Rotationally invariant grid construction     ... off
Angular grids for H and He will be reduced by one unit

Total number of grid points                  ...    28745
Total number of batches                      ...      252
Average number of points per batch           ...      114
Average number of grid points per atom       ...      612
UseSFitting                                  ... on

GRIDX 2
-------
General Integration Accuracy     IntAcc      ... 4.020
Radial Grid Type                 RadialGrid  ... OptM3 with GC (2021)
Angular Grid (max. ang.)         AngularGrid ... 2 (Lebedev-110)
Angular grid pruning method      GridPruning ... 4 (adaptive)
Weight generation scheme         WeightScheme... mBecke (2022)
Basis function cutoff            BFCut       ... 1.0000e-11
Integration weight cutoff        WCut        ... 1.0000e-14
Partially contracted basis set               ... on
Rotationally invariant grid construction     ... off
Angular grids for H and He will be reduced by one unit

Total number of grid points                  ...    62752
Total number of batches                      ...      517
Average number of points per batch           ...      121
Average number of grid points per atom       ...     1335
UseSFitting                                  ... on

GRIDX 3
-------
General Integration Accuracy     IntAcc      ... 4.338
Radial Grid Type                 RadialGrid  ... OptM3 with GC (2021)
Angular Grid (max. ang.)         AngularGrid ... 3 (Lebedev-194)
Angular grid pruning method      GridPruning ... 4 (adaptive)
Weight generation scheme         WeightScheme... mBecke (2022)
Basis function cutoff            BFCut       ... 1.0000e-11
Integration weight cutoff        WCut        ... 1.0000e-14
Partially contracted basis set               ... on
Rotationally invariant grid construction     ... off
Angular grids for H and He will be reduced by one unit

Total number of grid points                  ...   137472
Total number of batches                      ...     1096
Average number of points per batch           ...      125
Average number of grid points per atom       ...     2925
UseSFitting                                  ... on
Grids setup in   8.1 sec
Initializing property integral containers    ... done (  0.0 sec)

SHARK setup successfully completed in   9.4 seconds

Maximum memory used throughout the entire STARTUP-calculation: 91.5 MB
Occupation numbers will be reassigned to an Aufbau configuration
             **** ENERGY FILE WAS UPDATED (curcumin.en.tmp) ****
Finished Guess after   0.2 sec
Maximum memory used throughout the entire GUESS-calculation: 30.3 MB
----------------------------------------D-I-I-S--------------------------------------------
Iteration    Energy (Eh)           Delta-E    RMSDP     MaxDP     DIISErr   Damp  Time(sec)
-------------------------------------------------------------------------------------------
               ***  Starting incremental Fock matrix formation  ***
                              *** Initializing SOSCF ***
---------------------------------------S-O-S-C-F--------------------------------------
Iteration    Energy (Eh)           Delta-E    RMSDP     MaxDP     MaxGrad    Time(sec)
--------------------------------------------------------------------------------------
    1    -1262.8112393878186595     0.00e+00  4.51e-05  1.62e-03  2.17e-04    34.6
               *** Restarting incremental Fock matrix formation ***
    2    -1262.8113407914629533    -1.01e-04  2.34e-05  6.63e-04  2.84e-04    34.2
    3    -1262.8113520308056650    -1.12e-05  9.10e-06  3.86e-04  4.89e-05    19.1
    4    -1262.8113513896619224     6.41e-07  5.55e-06  2.93e-04  1.10e-04    17.1
    5    -1262.8113524076607064    -1.02e-06  1.87e-06  9.55e-05  1.25e-05    15.8
    6    -1262.8113523662163971     4.14e-08  1.22e-06  6.82e-05  2.86e-05    13.1
    7    -1262.8113524203768065    -5.42e-08  2.32e-07  8.70e-06  1.95e-06    12.3
                  *** Gradient check signals convergence ***

               *****************************************************
               *                     SUCCESS                       *
               *           SCF CONVERGED AFTER   7 CYCLES          *
               *****************************************************

Recomputing exchange energy using gridx3       ... done (   57.355 sec)
Old exchange energy                            :    -33.083286552 Eh
New exchange energy                            :    -33.083338616 Eh
Exchange energy change after final integration :     -0.000052064 Eh
Total energy after final integration           :  -1262.811404479 Eh
             **** ENERGY FILE WAS UPDATED (curcumin.en.tmp) ****

----------------
TOTAL SCF ENERGY
----------------

Total Energy       :      -1262.81140447921166 Eh          -34362.84529 eV

Components:
Nuclear Repulsion  :       2152.75944115358470 Eh           58579.56252 eV
Electronic Energy  :      -3415.57079356881513 Eh          -92942.40639 eV
One Electron Energy:      -5998.88061802644461 Eh         -163237.84047 eV
Two Electron Energy:       2583.30982445762947 Eh           70295.43407 eV

Virial components:
Potential Energy   :      -2518.26256540421946 Eh          -68525.40817 eV
Kinetic Energy     :       1255.45116092500780 Eh           34162.56288 eV
Virial Ratio       :          2.00586262833895

DFT components:
N(Alpha)           :       96.999861811018 electrons
N(Beta)            :       96.999861811018 electrons
N(Total)           :      193.999723622035 electrons
E(X)               :     -131.495081069658 Eh       
E(C)               :       -7.826715124260 Eh       
E(XC)              :     -139.321796193918 Eh       

---------------
SCF CONVERGENCE
---------------

  Last Energy change         ...    5.4160e-08  Tolerance :   1.0000e-08
  Last MAX-Density change    ...    8.6962e-06  Tolerance :   1.0000e-07
  Last RMS-Density change    ...    2.3193e-07  Tolerance :   5.0000e-09
  Last DIIS Error            ...    1.9061e-03  Tolerance :   5.0000e-07
  Last Orbital Gradient      ...    1.9488e-06  Tolerance :   1.0000e-05
  Last Orbital Rotation      ...    1.2341e-05  Tolerance :   1.0000e-05


Total SCF time: 0 days 0 hours 3 min 34 sec 
Finished LeanSCF after 214.4 sec

Maximum memory used throughout the entire LEANSCF-calculation: 59.5 MB

-------------------------   --------------------
FINAL SINGLE POINT ENERGY     -1262.811404479212
-------------------------   --------------------

------------------------------------------------------------------------------
                         ORCA SCF GRADIENT CALCULATION
------------------------------------------------------------------------------

Nuc. rep. gradient        (SHARK) ... done (  0.0 sec)
HCore & Overlap gradient  (SHARK) ... done (  2.2 sec)
Split-RIJ-J gradient      (SHARK) ... done ( 10.5 sec)
COSX-gradient                     ... done (113.5 sec)
XC gradient                       ... done ( 24.3 sec)

------------------
CARTESIAN GRADIENT
------------------

   1   C   :    0.000032051    0.000066627   -0.000024571
   2   O   :   -0.000001215   -0.000053772    0.000024291
   3   C   :    0.000065982   -0.000043969   -0.000143551
   4   C   :    0.000018063    0.000015480    0.000031334
   5   C   :    0.000038433    0.000041060    0.000032940
   6   C   :   -0.000063898   -0.000089520   -0.000001714
   7   C   :   -0.000000923   -0.000004255    0.000025314
   8   C   :    0.000079810   -0.000006536   -0.000217777
   9   O   :   -0.000053967    0.000024835    0.000051664
  10   C   :    0.000072298    0.000074209    0.000104360
  11   C   :   -0.000068342    0.000059250    0.000220788
  12   O   :    0.000011356   -0.000109222   -0.000109859
  13   C   :   -0.000011035   -0.000010324   -0.000062217
  14   C   :   -0.000112858    0.000065160   -0.000048747
  15   C   :    0.000087900   -0.000041129    0.000080359
  16   C   :   -0.000029587   -0.000010908    0.000024441
  17   C   :   -0.000003568    0.000057843   -0.000184402
  18   C   :    0.000012940   -0.000081516    0.000215409
  19   O   :    0.000060233   -0.000009209   -0.000079389
  20   C   :    0.000035194    0.000012297   -0.000023034
  21   O   :   -0.000063812    0.000000568   -0.000019807
  22   C   :    0.000065701   -0.000010006   -0.000013308
  23   C   :   -0.000048906    0.000033469   -0.000028338
  24   C   :   -0.000031516   -0.000098951   -0.000048658
  25   C   :    0.000126317    0.000096346   -0.000140050
  26   C   :   -0.000226857    0.000001210    0.000320549
  27   O   :    0.000061372    0.000064211   -0.000091240
  28   H   :    0.000007152   -0.000046263    0.000006693
  29   H   :   -0.000016526   -0.000024103   -0.000018173
  30   H   :   -0.000019406    0.000009145    0.000030376
  31   H   :    0.000016085    0.000031982    0.000000535
  32   H   :   -0.000001177    0.000055738   -0.000014932
  33   H   :    0.000003779    0.000010611    0.000006736
  34   H   :    0.000002253    0.000074402   -0.000068902
  35   H   :   -0.000009284   -0.000092957    0.000042464
  36   H   :    0.000011300   -0.000046731    0.000008494
  37   H   :    0.000034629   -0.000024085    0.000024444
  38   H   :    0.000005950    0.000007851    0.000000869
  39   H   :   -0.000008301   -0.000005345    0.000014159
  40   H   :   -0.000026850    0.000008203    0.000017108
  41   H   :   -0.000015239    0.000034008   -0.000005600
  42   H   :    0.000010462   -0.000015770    0.000028841
  43   H   :   -0.000049436    0.000004573   -0.000000013
  44   H   :    0.000033353    0.000001593   -0.000003569
  45   H   :   -0.000014488    0.000023124    0.000009862
  46   H   :   -0.000014505   -0.000016092    0.000008426
  47   H   :   -0.000000913   -0.000033134    0.000017395

Difference to translation invariance:
           :   -0.0000000001   -0.0000000001   -0.0000000000

Difference to rotation invariance:
           :   -0.0001504357    0.0002315575    0.0001945242

Norm of the Cartesian gradient     ...    0.0008053558
RMS gradient                       ...    0.0000678232
MAX gradient                       ...    0.0003205491

-------
TIMINGS
-------

Total SCF gradient time     ....      150.394 sec

Densities                   ....       0.007 sec  (  0.0%)
One electron gradient       ....       2.155 sec  (  1.4%)
RI-J Coulomb gradient       ....      10.511 sec  (  7.0%)
COSX gradient               ....     113.451 sec  ( 75.4%)
XC gradient                 ....      24.270 sec  ( 16.1%)

Maximum memory used throughout the entire SCFGRAD-calculation: 66.8 MB
------------------------------------------------------------------------------
                         ORCA GEOMETRY RELAXATION STEP
------------------------------------------------------------------------------

Reading the OPT-File                    .... done
Getting information on internals        .... done
Copying old internal coords+grads       .... done
Making the new internal coordinates     .... (2022 redundants) done
Validating the new internal coordinates .... (2022 redundants) done
Calculating the B-matrix                .... done
Calculating the G,G- and P matrices     .... done
Transforming gradient to internals      .... done
Projecting the internal gradient        .... done
Number of atoms                         ....  47
Number of internal coordinates          .... 220
Current Energy                          .... -1262.811404479 Eh
Current gradient norm                   ....     0.000805356 Eh/bohr
Maximum allowed component of the step   ....  0.300
Current trust radius                    ....  0.700
Updating the Hessian (BFGS)             .... done
Forming the augmented Hessian           .... done
Diagonalizing the augmented Hessian     .... done
Last element of RFO vector              ....  0.999537373
Lowest eigenvalues of augmented Hessian:
 -0.000007412  0.003444639  0.008795503  0.012693790  0.012782965
Length of the computed step             ....  0.030428548
The final length of the internal step   ....  0.030428548
Converting the step to Cartesian space:
 Initial RMS(Int)=    0.0020514923
Transforming coordinates:
 Iter   0:  RMS(Cart)=    0.0254241234 RMS(Int)=    0.5989607973
done
Storing new coordinates                 .... done
The predicted energy change is          ....    -0.000003709
Previously predicted energy change      ....    -0.000003938
Actually observed energy change         ....    -0.000008927
Ratio of predicted to observed change   ....     2.266901567
New trust radius                        ....     0.466666667

                                .--------------------.
          ----------------------|Geometry convergence|-------------------------
          Item                value                   Tolerance       Converged
          ---------------------------------------------------------------------
          Energy change      -0.0000089272            0.0000050000      NO
          RMS gradient        0.0000458976            0.0001000000      YES
          MAX gradient        0.0001985109            0.0003000000      YES
          RMS step            0.0020514923            0.0020000000      NO
          MAX step            0.0109418689            0.0040000000      NO
          -------------------------------------------------------------------------
          ........................................................
          Max(Bonds)      0.0004      Max(Angles)    0.14
          Max(Dihed)        0.63      Max(Improp)    0.00
          ---------------------------------------------------------------------

The optimization has not yet converged - more geometry cycles are needed


    ---------------------------------------------------------------------------
                         Redundant Internal Coordinates
                            (Angstroem and degrees)

        Definition                    Value    dE/dq     Step     New-Value
    ----------------------------------------------------------------------------
     1. B(O   1,C   0)                1.4184 -0.000008  0.0000    1.4184   
     2. B(C   2,O   1)                1.3614  0.000043 -0.0001    1.3613   
     3. B(C   3,C   2)                1.3912  0.000047 -0.0001    1.3911   
     4. B(C   4,C   3)                1.4142 -0.000010 -0.0000    1.4142   
     5. B(C   5,C   4)                1.4566 -0.000032  0.0001    1.4567   
     6. B(C   6,C   5)                1.3519  0.000017 -0.0001    1.3519   
     7. B(C   7,C   6)                1.4761 -0.000018  0.0001    1.4762   
     8. B(O   8,C   7)                1.2268  0.000078 -0.0002    1.2267   
     9. B(C   9,C   7)                1.5338 -0.000050  0.0002    1.5340   
    10. B(C  10,C   9)                1.5371 -0.000062  0.0002    1.5373   
    11. B(O  11,C  10)                1.2256  0.000112 -0.0002    1.2253   
    12. B(C  12,C  10)                1.4758 -0.000018  0.0001    1.4759   
    13. B(C  13,C  12)                1.3520  0.000019 -0.0001    1.3520   
    14. B(C  14,C  13)                1.4556 -0.000067  0.0002    1.4558   
    15. B(C  15,C  14)                1.4020  0.000033 -0.0000    1.4019   
    16. B(C  16,C  15)                1.3950 -0.000010 -0.0000    1.3950   
    17. B(C  17,C  16)                1.3928  0.000062 -0.0001    1.3927   
    18. B(O  18,C  17)                1.3605 -0.000029  0.0001    1.3606   
    19. B(C  19,C  17)                1.4201 -0.000058  0.0001    1.4202   
    20. B(O  20,C  19)                1.3605  0.000027 -0.0001    1.3604   
    21. B(C  21,O  20)                1.4193  0.000003 -0.0000    1.4193   
    22. B(C  22,C  19)                1.3883 -0.000005  0.0000    1.3883   
    23. B(C  22,C  14)                1.4155 -0.000007 -0.0001    1.4155   
    24. B(C  23,C   4)                1.4039  0.000022 -0.0000    1.4038   
    25. B(C  24,C  23)                1.3920 -0.000057  0.0001    1.3921   
    26. B(C  25,C  24)                1.3964  0.000115 -0.0002    1.3961   
    27. B(C  25,C   2)                1.4153 -0.000145  0.0004    1.4157   
    28. B(O  26,C  25)                1.3608 -0.000004  0.0000    1.3609   
    29. B(H  27,C   0)                1.0986 -0.000003  0.0000    1.0986   
    30. B(H  28,C   0)                1.0985 -0.000003  0.0000    1.0985   
    31. B(H  29,C   0)                1.0916  0.000007 -0.0000    1.0916   
    32. B(H  30,C   3)                1.0846 -0.000002  0.0000    1.0846   
    33. B(H  31,C   5)                1.0903 -0.000005  0.0000    1.0903   
    34. B(H  32,C   6)                1.0870 -0.000003  0.0000    1.0871   
    35. B(H  33,C   9)                1.0939 -0.000010  0.0001    1.0939   
    36. B(H  34,C   9)                1.0945 -0.000028  0.0001    1.0946   
    37. B(H  35,C  12)                1.0870  0.000004 -0.0000    1.0870   
    38. B(H  36,C  13)                1.0901 -0.000002  0.0000    1.0901   
    39. B(H  37,C  15)                1.0865  0.000002 -0.0000    1.0865   
    40. B(H  38,C  16)                1.0888 -0.000013  0.0001    1.0888   
    41. B(H  39,O  18)                0.9706 -0.000009  0.0001    0.9706   
    42. B(H  40,C  21)                1.0984 -0.000006  0.0000    1.0984   
    43. B(H  41,C  21)                1.0916  0.000005 -0.0000    1.0915   
    44. B(H  42,C  21)                1.0983 -0.000005  0.0000    1.0983   
    45. B(H  43,C  22)                1.0832  0.000004 -0.0000    1.0831   
    46. B(H  44,C  23)                1.0852  0.000003 -0.0000    1.0852   
    47. B(H  45,C  24)                1.0889 -0.000011  0.0001    1.0890   
    48. B(H  46,O  26)                0.9705 -0.000012  0.0001    0.9706   
    49. A(O   1,C   0,H  28)          111.59 -0.000011    0.01    111.60   
    50. A(H  27,C   0,H  28)          109.17  0.000040   -0.03    109.15   
    51. A(H  28,C   0,H  29)          109.30 -0.000030    0.02    109.32   
    52. A(H  27,C   0,H  29)          109.31 -0.000036    0.02    109.33   
    53. A(O   1,C   0,H  29)          105.81  0.000040   -0.02    105.79   
    54. A(O   1,C   0,H  27)          111.56 -0.000005    0.00    111.56   
    55. A(C   0,O   1,C   2)          117.96 -0.000042    0.02    117.98   
    56. A(O   1,C   2,C   3)          125.53  0.000021   -0.01    125.52   
    57. A(O   1,C   2,C  25)          115.50  0.000014   -0.00    115.49   
    58. A(C   3,C   2,C  25)          118.97 -0.000035    0.01    118.98   
    59. A(C   4,C   3,H  30)          118.37 -0.000037    0.01    118.38   
    60. A(C   2,C   3,H  30)          119.85  0.000035   -0.02    119.83   
    61. A(C   2,C   3,C   4)          121.78  0.000001    0.00    121.79   
    62. A(C   3,C   4,C  23)          118.28  0.000011   -0.01    118.27   
    63. A(C   3,C   4,C   5)          118.34 -0.000044    0.01    118.35   
    64. A(C   5,C   4,C  23)          123.38  0.000033   -0.01    123.37   
    65. A(C   4,C   5,H  31)          116.05  0.000035   -0.03    116.02   
    66. A(C   4,C   5,C   6)          128.38  0.000032    0.00    128.38   
    67. A(C   6,C   5,H  31)          115.57 -0.000067    0.03    115.60   
    68. A(C   5,C   6,H  32)          122.34  0.000046   -0.01    122.34   
    69. A(C   7,C   6,H  32)          117.06  0.000020   -0.02    117.04   
    70. A(C   5,C   6,C   7)          120.60 -0.000065    0.02    120.62   
    71. A(O   8,C   7,C   9)          120.54 -0.000078    0.04    120.57   
    72. A(C   6,C   7,C   9)          115.95  0.000127   -0.06    115.89   
    73. A(C   6,C   7,O   8)          123.49 -0.000050    0.02    123.52   
    74. A(H  33,C   9,H  34)          110.29 -0.000014   -0.05    110.24   
    75. A(C   7,C   9,H  34)          107.48 -0.000020    0.01    107.48   
    76. A(C   7,C   9,C  10)          110.20 -0.000199    0.14    110.34   
    77. A(C  10,C   9,H  34)          110.30  0.000160   -0.11    110.18   
    78. A(C   7,C   9,H  33)          111.08  0.000115   -0.04    111.03   
    79. A(C  10,C   9,H  33)          107.52 -0.000041    0.06    107.58   
    80. A(O  11,C  10,C  12)          123.70 -0.000071    0.03    123.74   
    81. A(C   9,C  10,C  12)          115.69  0.000194   -0.09    115.60   
    82. A(C   9,C  10,O  11)          120.59 -0.000123    0.05    120.65   
    83. A(C  10,C  12,H  35)          116.82  0.000018   -0.01    116.80   
    84. A(C  13,C  12,H  35)          122.48  0.000098   -0.03    122.45   
    85. A(C  10,C  12,C  13)          120.70 -0.000116    0.04    120.74   
    86. A(C  14,C  13,H  36)          115.88 -0.000012   -0.01    115.87   
    87. A(C  12,C  13,H  36)          115.77 -0.000114    0.05    115.81   
    88. A(C  12,C  13,C  14)          128.35  0.000126   -0.04    128.31   
    89. A(C  15,C  14,C  22)          118.35  0.000002   -0.00    118.35   
    90. A(C  13,C  14,C  22)          122.74  0.000080   -0.03    122.71   
    91. A(C  13,C  14,C  15)          118.91 -0.000081    0.03    118.94   
    92. A(C  16,C  15,H  37)          119.65 -0.000014    0.01    119.66   
    93. A(C  14,C  15,H  37)          119.60 -0.000015    0.01    119.61   
    94. A(C  14,C  15,C  16)          120.74  0.000029   -0.01    120.73   
    95. A(C  17,C  16,H  38)          119.22  0.000031   -0.01    119.21   
    96. A(C  15,C  16,H  38)          120.17  0.000050   -0.02    120.14   
    97. A(C  15,C  16,C  17)          120.62 -0.000081    0.03    120.65   
    98. A(O  18,C  17,C  19)          116.94  0.000024   -0.02    116.93   
    99. A(C  16,C  17,C  19)          119.59  0.000068   -0.03    119.56   
   100. A(C  16,C  17,O  18)          123.47 -0.000093    0.05    123.51   
   101. A(C  17,O  18,H  39)          108.59  0.000055   -0.04    108.55   
   102. A(O  20,C  19,C  22)          125.50  0.000043   -0.02    125.48   
   103. A(C  17,C  19,C  22)          119.32 -0.000014    0.01    119.33   
   104. A(C  17,C  19,O  20)          115.18 -0.000029    0.01    115.19   
   105. A(C  19,O  20,C  21)          117.95 -0.000047    0.02    117.97   
   106. A(H  41,C  21,H  42)          109.37 -0.000032    0.02    109.39   
   107. A(H  40,C  21,H  42)          109.18  0.000048   -0.03    109.15   
   108. A(H  40,C  21,H  41)          109.35 -0.000020    0.01    109.36   
   109. A(O  20,C  21,H  41)          105.80  0.000042   -0.02    105.78   
   110. A(O  20,C  21,H  40)          111.52 -0.000028    0.02    111.53   
   111. A(O  20,C  21,H  42)          111.54 -0.000011    0.01    111.55   
   112. A(C  14,C  22,C  19)          121.38 -0.000004    0.00    121.39   
   113. A(C  19,C  22,H  43)          119.50  0.000030   -0.02    119.48   
   114. A(C  14,C  22,H  43)          119.12 -0.000027    0.01    119.13   
   115. A(C   4,C  23,C  24)          120.37  0.000005   -0.00    120.37   
   116. A(C  24,C  23,H  44)          119.23  0.000025   -0.02    119.21   
   117. A(C   4,C  23,H  44)          120.40 -0.000030    0.02    120.42   
   118. A(C  25,C  24,H  45)          118.99  0.000009   -0.00    118.99   
   119. A(C  23,C  24,H  45)          119.97  0.000050   -0.02    119.95   
   120. A(C  23,C  24,C  25)          121.04 -0.000059    0.03    121.06   
   121. A(C  24,C  25,O  26)          123.28 -0.000142    0.06    123.34   
   122. A(C   2,C  25,O  26)          117.16  0.000066   -0.03    117.13   
   123. A(C   2,C  25,C  24)          119.56  0.000076   -0.03    119.53   
   124. A(C  25,O  26,H  46)          108.64  0.000053   -0.03    108.60   
   125. D(C   2,O   1,C   0,H  27)    -61.16 -0.000030    0.09    -61.07   
   126. D(C   2,O   1,C   0,H  28)     61.27  0.000010    0.06     61.33   
   127. D(C   2,O   1,C   0,H  29)   -179.94 -0.000008    0.07   -179.87   
   128. D(C   3,C   2,O   1,C   0)     -0.14  0.000008   -0.07     -0.21   
   129. D(C  25,C   2,O   1,C   0)    179.87  0.000006   -0.05    179.82   
   130. D(H  30,C   3,C   2,C  25)    179.95  0.000001   -0.01    179.94   
   131. D(C   4,C   3,C   2,C  25)     -0.16 -0.000001    0.01     -0.15   
   132. D(H  30,C   3,C   2,O   1)     -0.04 -0.000001    0.01     -0.03   
   133. D(C   4,C   3,C   2,O   1)    179.85 -0.000003    0.03    179.88   
   134. D(C  23,C   4,C   3,C   2)      0.20  0.000003   -0.04      0.16   
   135. D(C  23,C   4,C   3,H  30)   -179.91  0.000001   -0.02   -179.93   
   136. D(C   5,C   4,C   3,H  30)     -0.07 -0.000004   -0.00     -0.07   
   137. D(C   5,C   4,C   3,C   2)   -179.96 -0.000002   -0.02   -179.98   
   138. D(C   6,C   5,C   4,C   3)    177.46 -0.000041    0.61    178.07   
   139. D(C   6,C   5,C   4,C  23)     -2.70 -0.000047    0.63     -2.08   
   140. D(H  31,C   5,C   4,C   3)     -2.28 -0.000033    0.57     -1.71   
   141. D(H  31,C   5,C   4,C  23)    177.55 -0.000039    0.59    178.14   
   142. D(H  32,C   6,C   5,C   4)     -0.04 -0.000006    0.07      0.03   
   143. D(H  32,C   6,C   5,H  31)    179.71 -0.000014    0.10    179.81   
   144. D(C   7,C   6,C   5,H  31)     -0.39 -0.000005    0.04     -0.35   
   145. D(C   7,C   6,C   5,C   4)    179.87  0.000002   -0.00    179.87   
   146. D(C   9,C   7,C   6,H  32)     -1.85 -0.000005    0.10     -1.75   
   147. D(C   9,C   7,C   6,C   5)    178.23 -0.000013    0.17    178.40   
   148. D(O   8,C   7,C   6,H  32)    176.39 -0.000008    0.14    176.52   
   149. D(O   8,C   7,C   6,C   5)     -3.53 -0.000016    0.20     -3.33   
   150. D(H  34,C   9,C   7,C   6)   -163.33  0.000009   -0.04   -163.37   
   151. D(H  33,C   9,C   7,O   8)    139.10  0.000051   -0.15    138.95   
   152. D(H  33,C   9,C   7,C   6)    -42.60  0.000048   -0.12    -42.72   
   153. D(C  10,C   9,C   7,O   8)   -101.84 -0.000056   -0.02   -101.86   
   154. D(C  10,C   9,C   7,C   6)     76.45 -0.000058    0.01     76.46   
   155. D(O  11,C  10,C   9,C   7)   -108.91  0.000037   -0.52   -109.44   
   156. D(C  12,C  10,C   9,H  33)   -168.91 -0.000000   -0.38   -169.29   
   157. D(C  12,C  10,C   9,C   7)     69.89  0.000002   -0.45     69.44   
   158. D(O  11,C  10,C   9,H  34)    132.58  0.000085   -0.55    132.03   
   159. D(O  11,C  10,C   9,H  33)     12.29  0.000034   -0.46     11.83   
   160. D(H  35,C  12,C  10,C   9)     -2.62  0.000012    0.04     -2.59   
   161. D(H  35,C  12,C  10,O  11)    176.14 -0.000024    0.11    176.25   
   162. D(C  13,C  12,C  10,C   9)    177.69  0.000012    0.06    177.75   
   163. D(C  13,C  12,C  10,O  11)     -3.54 -0.000024    0.13     -3.41   
   164. D(H  36,C  13,C  12,H  35)   -179.89  0.000020   -0.04   -179.93   
   165. D(H  36,C  13,C  12,C  10)     -0.22  0.000019   -0.06     -0.28   
   166. D(C  14,C  13,C  12,H  35)      0.26  0.000021   -0.03      0.23   
   167. D(C  14,C  13,C  12,C  10)    179.93  0.000020   -0.05    179.87   
   168. D(C  22,C  14,C  13,C  12)     -1.40  0.000020   -0.09     -1.50   
   169. D(C  22,C  14,C  13,H  36)    178.74  0.000022   -0.08    178.66   
   170. D(C  15,C  14,C  13,C  12)    178.73  0.000028   -0.11    178.62   
   171. D(C  15,C  14,C  13,H  36)     -1.12  0.000029   -0.10     -1.23   
   172. D(H  37,C  15,C  14,C  22)   -179.95 -0.000005    0.01   -179.94   
   173. D(H  37,C  15,C  14,C  13)     -0.07 -0.000011    0.03     -0.05   
   174. D(C  16,C  15,C  14,C  22)      0.10 -0.000007    0.03      0.12   
   175. D(C  16,C  15,C  14,C  13)    179.97 -0.000014    0.04    180.02   
   176. D(H  38,C  16,C  15,H  37)     -0.00  0.000002   -0.01     -0.01   
   177. D(H  38,C  16,C  15,C  14)    179.95  0.000004   -0.03    179.93   
   178. D(C  17,C  16,C  15,H  37)    179.97  0.000002   -0.01    179.96   
   179. D(C  17,C  16,C  15,C  14)     -0.08  0.000005   -0.03     -0.10   
   180. D(C  19,C  17,C  16,H  38)    179.95  0.000001    0.01    179.96   
   181. D(C  19,C  17,C  16,C  15)     -0.02  0.000001    0.01     -0.01   
   182. D(O  18,C  17,C  16,H  38)      0.01 -0.000001    0.02      0.02   
   183. D(O  18,C  17,C  16,C  15)   -179.96 -0.000002    0.02   -179.95   
   184. D(H  39,O  18,C  17,C  19)   -179.92  0.000000   -0.01   -179.93   
   185. D(H  39,O  18,C  17,C  16)      0.03  0.000003   -0.02      0.01   
   186. D(O  20,C  19,C  17,O  18)      0.08 -0.000001    0.00      0.08   
   187. D(O  20,C  19,C  17,C  16)   -179.87 -0.000004    0.01   -179.87   
   188. D(C  22,C  19,C  17,O  18)   -179.96 -0.000001   -0.00   -179.96   
   189. D(C  22,C  19,C  17,C  16)      0.09 -0.000004    0.01      0.09   
   190. D(C  21,O  20,C  19,C  22)      0.01  0.000016   -0.09     -0.08   
   191. D(C  21,O  20,C  19,C  17)    179.97  0.000017   -0.10    179.87   
   192. D(H  42,C  21,O  20,C  19)    -61.22 -0.000030    0.12    -61.10   
   193. D(H  41,C  21,O  20,C  19)    179.95 -0.000010    0.10    180.05   
   194. D(H  40,C  21,O  20,C  19)     61.15  0.000004    0.09     61.25   
   195. D(H  43,C  22,C  19,O  20)      0.13 -0.000003   -0.02      0.12   
   196. D(H  43,C  22,C  19,C  17)   -179.82 -0.000004   -0.01   -179.84   
   197. D(C  14,C  22,C  19,O  20)    179.89  0.000002   -0.01    179.88   
   198. D(C  14,C  22,C  19,C  17)     -0.06  0.000001   -0.01     -0.07   
   199. D(H  43,C  22,C  14,C  15)    179.73  0.000009   -0.00    179.73   
   200. D(H  43,C  22,C  14,C  13)     -0.14  0.000016   -0.02     -0.16   
   201. D(C  19,C  22,C  14,C  15)     -0.03  0.000004   -0.01     -0.04   
   202. D(C  19,C  22,C  14,C  13)   -179.90  0.000011   -0.03   -179.92   
   203. D(H  44,C  23,C   4,C   5)     -0.28 -0.000003    0.08     -0.20   
   204. D(H  44,C  23,C   4,C   3)    179.56 -0.000008    0.10    179.65   
   205. D(C  24,C  23,C   4,C   5)   -179.94  0.000004    0.01   -179.93   
   206. D(C  24,C  23,C   4,C   3)     -0.11 -0.000002    0.03     -0.08   
   207. D(H  45,C  24,C  23,H  44)      0.21  0.000005   -0.05      0.16   
   208. D(H  45,C  24,C  23,C   4)    179.88 -0.000002    0.02    179.90   
   209. D(C  25,C  24,C  23,H  44)   -179.69  0.000005   -0.05   -179.75   
   210. D(C  25,C  24,C  23,C   4)     -0.02 -0.000002    0.02     -0.01   
   211. D(O  26,C  25,C  24,H  45)      0.10 -0.000000   -0.02      0.08   
   212. D(O  26,C  25,C  24,C  23)    180.00  0.000000   -0.01    179.99   
   213. D(C   2,C  25,C  24,H  45)   -179.84  0.000004   -0.05   -179.89   
   214. D(C   2,C  25,C  24,C  23)      0.06  0.000005   -0.04      0.02   
   215. D(O  26,C  25,C   2,C   3)   -179.91  0.000001    0.00   -179.91   
   216. D(O  26,C  25,C   2,O   1)      0.08  0.000003   -0.01      0.06   
   217. D(C  24,C  25,C   2,C   3)      0.03 -0.000003    0.03      0.06   
   218. D(C  24,C  25,C   2,O   1)   -179.99 -0.000001    0.02   -179.97   
   219. D(H  46,O  26,C  25,C  24)     -0.03  0.000019   -0.13     -0.16   
   220. D(H  46,O  26,C  25,C   2)    179.90  0.000015   -0.09    179.81   
    ----------------------------------------------------------------------------

Geometry step timings:
Preparation and reading OPT file:      0.001 s ( 4.167 %)
Internal coordinates            :      0.000 s ( 0.000 %)
B/P matrices and projection     :      0.007 s (29.167 %)
Hessian update/contruction      :      0.003 s (12.500 %)
Making the step                 :      0.007 s (29.167 %)
Converting the step to Cartesian:      0.001 s ( 4.167 %)
Storing new data                :      0.000 s ( 0.000 %)
Checking convergence            :      0.000 s ( 0.000 %)
Final printing                  :      0.005 s (20.833 %)
Total time                      :      0.024 s

Time for energy+gradient        :    374.851 s
Time for complete geometry iter :    374.983 s

         *************************************************************
         *                GEOMETRY OPTIMIZATION CYCLE  11            *
         *************************************************************
---------------------------------
CARTESIAN COORDINATES (ANGSTROEM)
---------------------------------
  C     -1.502123   -7.414035    1.836522
  O     -0.692483   -7.643032    0.694586
  C      0.094339   -6.622994    0.254642
  C      0.174282   -5.358417    0.828664
  C      1.023314   -4.355446    0.306103
  C      1.048741   -3.057381    0.966635
  C      1.802357   -1.976465    0.664571
  C      1.686779   -0.734750    1.454426
  O      0.882585   -0.585889    2.368641
  C      2.619537    0.410928    1.041451
  C      2.098101    1.090791   -0.234966
  O      2.689022    0.956861   -1.300024
  C      0.854045    1.869565   -0.080138
  C      0.328307    2.547251   -1.125202
  C     -0.880094    3.358377   -1.158892
  C     -1.230882    4.003822   -2.352962
  C     -2.380576    4.790454   -2.426942
  C     -3.205045    4.948941   -1.315790
  O     -4.339094    5.700607   -1.322897
  C     -2.869803    4.302170   -0.096671
  O     -3.737239    4.515160    0.929423
  C     -3.460108    3.893962    2.175057
  C     -1.722480    3.523068   -0.033350
  C      1.796372   -4.661635   -0.825000
  C      1.722075   -5.923809   -1.407564
  C      0.883091   -6.909993   -0.885389
  O      0.774117   -8.157822   -1.417349
  H     -0.895372   -7.171479    2.719621
  H     -2.225924   -6.605945    1.663652
  H     -2.038845   -8.348195    2.012322
  H     -0.424695   -5.123447    1.701864
  H      0.376499   -2.940198    1.817026
  H      2.511301   -1.973836   -0.159494
  H      3.626934    0.040398    0.830461
  H      2.645263    1.128251    1.867911
  H      0.390401    1.862289    0.902979
  H      0.881780    2.479133   -2.061886
  H     -0.599520    3.890640   -3.229913
  H     -2.643328    5.288415   -3.358876
  H     -4.451119    6.082111   -2.208364
  H     -2.501401    4.233088    2.590228
  H     -4.269890    4.193680    2.842800
  H     -3.447145    2.799378    2.085983
  H     -1.465871    3.026502    0.894424
  H      2.455534   -3.916368   -1.258180
  H      2.323522   -6.153473   -2.285824
  H      1.360639   -8.218040   -2.188327

----------------------------
CARTESIAN COORDINATES (A.U.)
----------------------------
  NO LB      ZA    FRAG     MASS         X           Y           Z
   0 C     6.0000    0    12.011   -2.838601  -14.010496    3.470524
   1 O     8.0000    0    15.999   -1.308604  -14.443237    1.312576
   2 C     6.0000    0    12.011    0.178275  -12.515646    0.481204
   3 C     6.0000    0    12.011    0.329346  -10.125941    1.565948
   4 C     6.0000    0    12.011    1.933782   -8.230601    0.578451
   5 C     6.0000    0    12.011    1.981834   -5.777613    1.826676
   6 C     6.0000    0    12.011    3.405961   -3.734977    1.255857
   7 C     6.0000    0    12.011    3.187551   -1.388477    2.748467
   8 O     8.0000    0    15.999    1.667844   -1.107170    4.476084
   9 C     6.0000    0    12.011    4.950208    0.776542    1.968057
  10 C     6.0000    0    12.011    3.964836    2.061296   -0.444021
  11 O     8.0000    0    15.999    5.081515    1.808206   -2.456690
  12 C     6.0000    0    12.011    1.613912    3.532965   -0.151439
  13 C     6.0000    0    12.011    0.620410    4.813606   -2.126323
  14 C     6.0000    0    12.011   -1.663136    6.346412   -2.189988
  15 C     6.0000    0    12.011   -2.326030    7.566127   -4.446453
  16 C     6.0000    0    12.011   -4.498637    9.052646   -4.586256
  17 C     6.0000    0    12.011   -6.056658    9.352143   -2.486482
  18 O     8.0000    0    15.999   -8.199699   10.772586   -2.499913
  19 C     6.0000    0    12.011   -5.423143    8.129924   -0.182681
  20 O     8.0000    0    15.999   -7.062358    8.532416    1.756356
  21 C     6.0000    0    12.011   -6.538656    7.358521    4.110262
  22 C     6.0000    0    12.011   -3.255016    6.657634   -0.063022
  23 C     6.0000    0    12.011    3.394652   -8.809213   -1.559024
  24 C     6.0000    0    12.011    3.254250  -11.194376   -2.659910
  25 C     6.0000    0    12.011    1.668800  -13.057994   -1.673142
  26 O     8.0000    0    15.999    1.462869  -15.416049   -2.678402
  27 H     1.0000    0     1.008   -1.692007  -13.552131    5.139338
  28 H     1.0000    0     1.008   -4.206386  -12.483427    3.143847
  29 H     1.0000    0     1.008   -3.852858  -15.775803    3.802737
  30 H     1.0000    0     1.008   -0.802558   -9.681913    3.216057
  31 H     1.0000    0     1.008    0.711481   -5.556169    3.433682
  32 H     1.0000    0     1.008    4.745671   -3.730010   -0.301401
  33 H     1.0000    0     1.008    6.853913    0.076341    1.569345
  34 H     1.0000    0     1.008    4.998822    2.132085    3.529840
  35 H     1.0000    0     1.008    0.737751    3.519216    1.706383
  36 H     1.0000    0     1.008    1.666322    4.684882   -3.896400
  37 H     1.0000    0     1.008   -1.132928    7.352244   -6.103650
  38 H     1.0000    0     1.008   -4.995165    9.993655   -6.347356
  39 H     1.0000    0     1.008   -8.411396   11.493525   -4.173202
  40 H     1.0000    0     1.008   -4.726964    7.999378    4.894822
  41 H     1.0000    0     1.008   -8.068923    7.924906    5.372114
  42 H     1.0000    0     1.008   -6.514161    5.290057    3.941936
  43 H     1.0000    0     1.008   -2.770095    5.719259    1.690217
  44 H     1.0000    0     1.008    4.640286   -7.400863   -2.377616
  45 H     1.0000    0     1.008    4.390820  -11.628378   -4.319580
  46 H     1.0000    0     1.008    2.571235  -15.529845   -4.135338

--------------------------------
INTERNAL COORDINATES (ANGSTROEM)
--------------------------------
 C      0   0   0     0.000000000000     0.00000000     0.00000000
 O      1   0   0     1.418441055684     0.00000000     0.00000000
 C      2   1   0     1.361292030405   117.97770500     0.00000000
 C      3   2   1     1.391059667374   125.52373500   359.78857327
 C      4   3   2     1.414169276519   121.78709157   179.88015521
 C      5   4   3     1.456681785855   118.35444911   180.02181430
 C      6   5   4     1.351872652654   128.38311285   178.06987464
 C      7   6   5     1.476171999716   120.62202842   179.86777050
 O      8   7   6     1.226653209307   123.51772861   356.67283686
 C      8   7   6     1.534002825401   115.88573689   178.39927372
 C     10   8   7     1.537319039387   110.33878919    76.46378428
 O     11  10   8     1.225346427059   120.64844648   250.56432119
 C     11  10   8     1.475850310330   115.60534000    69.44334775
 C     13  11  10     1.351967871219   120.74406443   177.74930876
 C     14  13  11     1.455778905296   128.31378197   179.87435513
 C     15  14  13     1.401946936259   118.94220651   178.61839190
 C     16  15  14     1.395012477800   120.72997262   180.01522314
 C     17  16  15     1.392668939784   120.64776486   359.89600021
 O     18  17  16     1.360558250992   123.51472440   180.05310092
 C     18  17  16     1.420194080384   119.55929085     0.00000000
 O     20  18  17     1.360396083119   115.19205775   180.13345136
 C     21  20  18     1.419257615298   117.96644264   179.87367599
 C     20  18  17     1.388294227606   119.32790550     0.09084715
 C      5   4   3     1.403839225408   118.27153375     0.16059059
 C     24   5   4     1.392115167070   120.36675615   359.92028818
 C     25  24   5     1.396108960940   121.06435883     0.00000000
 O     26  25  24     1.360858024945   123.34144020   179.98588105
 H      1   2   3     1.098564214275   111.56471596   298.93090925
 H      1   2   3     1.098535807362   111.60182377    61.32963617
 H      1   2   3     1.091618353480   105.79175468   180.13456131
 H      4   3   2     1.084649217131   119.82840795   359.97178854
 H      6   5   4     1.090323624897   116.01941779   358.28694037
 H      7   6   5     1.087056706629   122.33550107     0.02695933
 H     10   8   7     1.093918933222   111.03344053   317.27924408
 H     10   8   7     1.094645851812   107.48453674   196.63415301
 H     13  11  10     1.086985827299   116.80148373   357.41463758
 H     14  13  11     1.090114678408   115.81325767   359.71980031
 H     16  15  14     1.086495074945   119.61025486   359.95463641
 H     17  16  15     1.088808702141   120.14338780   179.92635057
 H     19  18  17     0.970642207096   108.54856914     0.00000000
 H     22  21  20     1.098404203607   111.53273101    61.24545151
 H     22  21  20     1.091540236411   105.77513361   180.04886808
 H     22  21  20     1.098278769523   111.55183431   298.90002967
 H     23  20  18     1.083139319797   119.48122981   180.16469822
 H     24   5   4     1.085155099180   120.42035321   179.65459507
 H     25  24   5     1.088955531896   119.95012834   179.89828002
 H     27  26  25     0.970587675005   108.60293431   359.83836026

---------------------------
INTERNAL COORDINATES (A.U.)
---------------------------
 C      0   0   0     0.000000000000     0.00000000     0.00000000
 O      1   0   0     2.680465132352     0.00000000     0.00000000
 C      2   1   0     2.572469125755   117.97770500     0.00000000
 C      3   2   1     2.628721807280   125.52373500   359.78857327
 C      4   3   2     2.672392639627   121.78709157   179.88015521
 C      5   4   3     2.752729639537   118.35444911   180.02181430
 C      6   5   4     2.554669081454   128.38311285   178.06987464
 C      7   6   5     2.789560806025   120.62202842   179.86777050
 O      8   7   6     2.318038626887   123.51772861   356.67283686
 C      8   7   6     2.898845228670   115.88573689   178.39927372
 C     10   8   7     2.905111964904   110.33878919    76.46378428
 O     11  10   8     2.315569166320   120.64844648   250.56432119
 C     11  10   8     2.788952901186   115.60534000    69.44334775
 C     13  11  10     2.554849018464   120.74406443   177.74930876
 C     14  13  11     2.751023442549   128.31378197   179.87435513
 C     15  14  13     2.649295763820   118.94220651   178.61839190
 C     16  15  14     2.636191536445   120.72997262   180.01522314
 C     17  16  15     2.631762891410   120.64776486   359.89600021
 O     18  17  16     2.571082483622   123.51472440   180.05310092
 C     18  17  16     2.683777868942   119.55929085     0.00000000
 O     20  18  17     2.570776030754   115.19205775   180.13345136
 C     21  20  18     2.682008206395   117.96644264   179.87367599
 C     20  18  17     2.623495883480   119.32790550     0.09084715
 C      5   4   3     2.652871672078   118.27153375     0.16059059
 C     24   5   4     2.630716412641   120.36675615   359.92028818
 C     25  24   5     2.638263589290   121.06435883     0.00000000
 O     26  25  24     2.571648974295   123.34144020   179.98588105
 H      1   2   3     2.075985505506   111.56471596   298.93090925
 H      1   2   3     2.075931824220   111.60182377    61.32963617
 H      1   2   3     2.062859730838   105.79175468   180.13456131
 H      4   3   2     2.049689971750   119.82840795   359.97178854
 H      6   5   4     2.060413048400   116.01941779   358.28694037
 H      7   6   5     2.054239467571   122.33550107     0.02695933
 H     10   8   7     2.067207196500   111.03344053   317.27924408
 H     10   8   7     2.068580873558   107.48453674   196.63415301
 H     13  11  10     2.054105525049   116.80148373   357.41463758
 H     14  13  11     2.060018196758   115.81325767   359.71980031
 H     16  15  14     2.053178137500   119.61025486   359.95463641
 H     17  16  15     2.057550259276   120.14338780   179.92635057
 H     19  18  17     1.834247945436   108.54856914     0.00000000
 H     22  21  20     2.075683129164   111.53273101    61.24545151
 H     22  21  20     2.062712110972   105.77513361   180.04886808
 H     22  21  20     2.075446093099   111.55183431   298.90002967
 H     23  20  18     2.046836679297   119.48122981   180.16469822
 H     24   5   4     2.050645950279   120.42035321   179.65459507
 H     25  24   5     2.057827727301   119.95012834   179.89828002
 H     27  26  25     1.834144894719   108.60293431   359.83836026

------------------------------------------------------------------------------
                   ___                                                        
                  /   \      - P O W E R E D   B Y -                         
                 /     \                                                     
                 |  |  |   _    _      __       _____    __    __             
                 |  |  |  | |  | |    /  \     |  _  \  |  |  /  |          
                  \  \/   | |  | |   /    \    | | | |  |  | /  /          
                 / \  \   | |__| |  /  /\  \   | |_| |  |  |/  /          
                |  |  |   |  __  | /  /__\  \  |    /   |      \           
                |  |  |   | |  | | |   __   |  |    \   |  |\   \          
                \     /   | |  | | |  |  |  |  | |\  \  |  | \   \       
                 \___/    |_|  |_| |__|  |__|  |_| \__\ |__|  \__/        
                                                                              
                      - O R C A' S   B I G   F R I E N D -                    
                                      &                                       
                       - I N T E G R A L  F E E D E R -                       
                                                                              
 v1 FN, 2020, v2 2021, v3 2022-2024                                           
------------------------------------------------------------------------------


----------------------
SHARK INTEGRAL PACKAGE
----------------------

Number of atoms                             ...     47
Number of basis functions                   ...    418
Number of shells                            ...    202
Maximum angular momentum                    ...      2
Integral batch strategy                     ... SHARK/LIBINT Hybrid
RI-J (if used) integral strategy            ... SPLIT-RIJ (Revised 2003 algorithm where possible)
Printlevel                                  ...      1
Contraction scheme used                     ... SEGMENTED contraction
Prescreening option                         ... SCHWARTZ
   Thresh                                   ... 2.500e-11
   Tcut                                     ... 2.500e-12
   Tpresel                                  ... 2.500e-12 
Coulomb Range Separation                    ... NOT USED
Exchange Range Separation                   ... NOT USED
Multipole approximations                    ... NOT USED
Finite Nucleus Model                        ... NOT USED
CABS basis                                  ... NOT available
Auxiliary Coulomb fitting basis             ... AVAILABLE
   # of basis functions in Aux-J            ...   1543
   # of shells in Aux-J                     ...    505
   Maximum angular momentum in Aux-J        ...      4
Auxiliary J/K fitting basis                 ... NOT available
Auxiliary Correlation fitting basis         ... NOT available
Auxiliary 'external' fitting basis          ... NOT available

Checking pre-screening integrals            ... done (  0.0 sec) Dimension = 202
   => SHARK Basis and OBASIS are compatible. Storing Pre-screening
Shell pair information
Shell pair cut-off parameter TPreSel        ...   2.5e-12
Total number of shell pairs                 ...     20503
Shell pairs after pre-screening             ...     10427
Total number of primitive shell pairs       ...    118482
Primitive shell pairs kept                  ...     33410
          la=0 lb=0:   3566 shell pairs
          la=1 lb=0:   3596 shell pairs
          la=1 lb=1:    918 shell pairs
          la=2 lb=0:   1436 shell pairs
          la=2 lb=1:    756 shell pairs
          la=2 lb=2:    155 shell pairs

Checking whether 4 symmetric matrices of dimension 418 fit in memory
:Max Core in MB      =   4096.00
 MB in use           =     16.48
 MB left             =   4079.52
 MB needed           =      2.67
 Data fit in memory  = YES
Calculating RI/J V-Matrix + Cholesky decomp.... done (  0.2 sec)
Calculating Nuclear repulsion               ... done (  0.0 sec) ENN=   2153.388341723459 Eh

Diagonalization of the overlap matrix:
Smallest eigenvalue                        ... 4.106e-04
Time for diagonalization                   ...    0.022 sec
Threshold for overlap eigenvalues          ... 1.000e-07
Number of eigenvalues below threshold      ... 0
Time for construction of square roots      ...    0.016 sec
Total time needed                          ...    0.039 sec

-------------------
DFT GRID GENERATION
-------------------

General Integration Accuracy     IntAcc      ... 4.388
Radial Grid Type                 RadialGrid  ... OptM3 with GC (2021)
Angular Grid (max. ang.)         AngularGrid ... 4 (Lebedev-302)
Angular grid pruning method      GridPruning ... 4 (adaptive)
Weight generation scheme         WeightScheme... mBecke (2022)
Basis function cutoff            BFCut       ... 1.0000e-11
Integration weight cutoff        WCut        ... 1.0000e-14
Partially contracted basis set               ... off
Rotationally invariant grid construction     ... off
Angular grids for H and He will be reduced by one unit

Total number of grid points                  ...   226267
Total number of batches                      ...     3555
Average number of points per batch           ...       63
Average number of grid points per atom       ...     4814

--------------------
COSX GRID GENERATION
--------------------

GRIDX 1
-------
General Integration Accuracy     IntAcc      ... 3.816
Radial Grid Type                 RadialGrid  ... OptM3 with GC (2021)
Angular Grid (max. ang.)         AngularGrid ... 1 (Lebedev-50)
Angular grid pruning method      GridPruning ... 4 (adaptive)
Weight generation scheme         WeightScheme... mBecke (2022)
Basis function cutoff            BFCut       ... 1.0000e-11
Integration weight cutoff        WCut        ... 1.0000e-14
Partially contracted basis set               ... on
Rotationally invariant grid construction     ... off
Angular grids for H and He will be reduced by one unit

Total number of grid points                  ...    28748
Total number of batches                      ...      252
Average number of points per batch           ...      114
Average number of grid points per atom       ...      612
UseSFitting                                  ... on

GRIDX 2
-------
General Integration Accuracy     IntAcc      ... 4.020
Radial Grid Type                 RadialGrid  ... OptM3 with GC (2021)
Angular Grid (max. ang.)         AngularGrid ... 2 (Lebedev-110)
Angular grid pruning method      GridPruning ... 4 (adaptive)
Weight generation scheme         WeightScheme... mBecke (2022)
Basis function cutoff            BFCut       ... 1.0000e-11
Integration weight cutoff        WCut        ... 1.0000e-14
Partially contracted basis set               ... on
Rotationally invariant grid construction     ... off
Angular grids for H and He will be reduced by one unit

Total number of grid points                  ...    62747
Total number of batches                      ...      518
Average number of points per batch           ...      121
Average number of grid points per atom       ...     1335
UseSFitting                                  ... on

GRIDX 3
-------
General Integration Accuracy     IntAcc      ... 4.338
Radial Grid Type                 RadialGrid  ... OptM3 with GC (2021)
Angular Grid (max. ang.)         AngularGrid ... 3 (Lebedev-194)
Angular grid pruning method      GridPruning ... 4 (adaptive)
Weight generation scheme         WeightScheme... mBecke (2022)
Basis function cutoff            BFCut       ... 1.0000e-11
Integration weight cutoff        WCut        ... 1.0000e-14
Partially contracted basis set               ... on
Rotationally invariant grid construction     ... off
Angular grids for H and He will be reduced by one unit

Total number of grid points                  ...   137476
Total number of batches                      ...     1096
Average number of points per batch           ...      125
Average number of grid points per atom       ...     2925
UseSFitting                                  ... on
Grids setup in   9.1 sec
Initializing property integral containers    ... done (  0.0 sec)

SHARK setup successfully completed in   9.8 seconds

Maximum memory used throughout the entire STARTUP-calculation: 91.5 MB
Occupation numbers will be reassigned to an Aufbau configuration
             **** ENERGY FILE WAS UPDATED (curcumin.en.tmp) ****
Finished Guess after   0.9 sec
Maximum memory used throughout the entire GUESS-calculation: 30.3 MB
----------------------------------------D-I-I-S--------------------------------------------
Iteration    Energy (Eh)           Delta-E    RMSDP     MaxDP     DIISErr   Damp  Time(sec)
-------------------------------------------------------------------------------------------
               ***  Starting incremental Fock matrix formation  ***
    1    -1262.8108719728575124     0.00e+00  2.74e-05  1.13e-03  4.22e-03  0.700  34.2
    2    -1262.8109977297594924    -1.26e-04  2.62e-05  1.08e-03  3.38e-03  0.700  11.3
                               ***Turning on AO-DIIS***
                              *** Initializing SOSCF ***
---------------------------------------S-O-S-C-F--------------------------------------
Iteration    Energy (Eh)           Delta-E    RMSDP     MaxDP     MaxGrad    Time(sec)
--------------------------------------------------------------------------------------
    3    -1262.8110978038653229    -1.00e-04  7.45e-05  3.04e-03  2.57e-03    11.0
               *** Restarting incremental Fock matrix formation ***
    4    -1262.8113559911557786    -2.58e-04  1.25e-05  2.99e-04  1.65e-04    33.9
    5    -1262.8113577534732030    -1.76e-06  8.81e-06  3.81e-04  7.74e-05    17.8
    6    -1262.8113576564019240     9.71e-08  5.39e-06  2.46e-04  6.88e-05    17.0
    7    -1262.8113581805218928    -5.24e-07  2.35e-06  1.25e-04  1.80e-05    15.5
    8    -1262.8113581347492982     4.58e-08  1.57e-06  8.27e-05  3.55e-05    13.4
    9    -1262.8113582068367577    -7.21e-08  2.81e-07  1.19e-05  2.11e-06    13.0
                  *** Gradient check signals convergence ***

               *****************************************************
               *                     SUCCESS                       *
               *           SCF CONVERGED AFTER   9 CYCLES          *
               *****************************************************

Recomputing exchange energy using gridx3       ... done (   57.243 sec)
Old exchange energy                            :    -33.083246319 Eh
New exchange energy                            :    -33.083297455 Eh
Exchange energy change after final integration :     -0.000051136 Eh
Total energy after final integration           :  -1262.811409348 Eh
             **** ENERGY FILE WAS UPDATED (curcumin.en.tmp) ****

----------------
TOTAL SCF ENERGY
----------------

Total Energy       :      -1262.81140934756945 Eh          -34362.84542 eV

Components:
Nuclear Repulsion  :       2153.38834172345923 Eh           58596.67578 eV
Electronic Energy  :      -3416.19969993470431 Eh          -92959.51981 eV
One Electron Energy:      -6000.13351886786950 Eh         -163271.93363 eV
Two Electron Energy:       2583.93381893316518 Eh           70312.41383 eV

Virial components:
Potential Energy   :      -2518.26190671514269 Eh          -68525.39025 eV
Kinetic Energy     :       1255.45049736757301 Eh           34162.54482 eV
Virial Ratio       :          2.00586316385666

DFT components:
N(Alpha)           :       96.999868570770 electrons
N(Beta)            :       96.999868570770 electrons
N(Total)           :      193.999737141541 electrons
E(X)               :     -131.494922597218 Eh       
E(C)               :       -7.826696584310 Eh       
E(XC)              :     -139.321619181527 Eh       

---------------
SCF CONVERGENCE
---------------

  Last Energy change         ...    7.2087e-08  Tolerance :   1.0000e-08
  Last MAX-Density change    ...    1.1947e-05  Tolerance :   1.0000e-07
  Last RMS-Density change    ...    2.8121e-07  Tolerance :   5.0000e-09
  Last DIIS Error            ...    2.5698e-03  Tolerance :   5.0000e-07
  Last Orbital Gradient      ...    2.1137e-06  Tolerance :   1.0000e-05
  Last Orbital Rotation      ...    1.2872e-05  Tolerance :   1.0000e-05


Total SCF time: 0 days 0 hours 3 min 54 sec 
Finished LeanSCF after 234.5 sec

Maximum memory used throughout the entire LEANSCF-calculation: 59.5 MB

-------------------------   --------------------
FINAL SINGLE POINT ENERGY     -1262.811409347569
-------------------------   --------------------

------------------------------------------------------------------------------
                         ORCA SCF GRADIENT CALCULATION
------------------------------------------------------------------------------

Nuc. rep. gradient        (SHARK) ... done (  0.0 sec)
HCore & Overlap gradient  (SHARK) ... done (  2.1 sec)
Split-RIJ-J gradient      (SHARK) ... done ( 10.6 sec)
COSX-gradient                     ... done (113.1 sec)
XC gradient                       ... done ( 24.2 sec)

------------------
CARTESIAN GRADIENT
------------------

   1   C   :    0.000011953    0.000031129   -0.000024843
   2   O   :    0.000009621    0.000004140    0.000016030
   3   C   :   -0.000021153   -0.000011395    0.000049949
   4   C   :    0.000010432   -0.000011225   -0.000040217
   5   C   :   -0.000040132   -0.000030232    0.000074020
   6   C   :    0.000010753    0.000049677   -0.000017653
   7   C   :    0.000033309   -0.000050492   -0.000026090
   8   C   :   -0.000190654   -0.000056756    0.000093665
   9   O   :    0.000097695    0.000007150   -0.000041744
  10   C   :    0.000000505    0.000039047   -0.000025028
  11   C   :    0.000080748    0.000084173   -0.000110082
  12   O   :   -0.000037465   -0.000065041    0.000028828
  13   C   :   -0.000033599    0.000019247    0.000024701
  14   C   :   -0.000005836   -0.000037884    0.000022895
  15   C   :   -0.000005249    0.000008783    0.000031468
  16   C   :   -0.000071089    0.000032862   -0.000059390
  17   C   :    0.000080853   -0.000071412    0.000051541
  18   C   :   -0.000018753    0.000050131   -0.000115675
  19   O   :   -0.000063402   -0.000001473    0.000106506
  20   C   :   -0.000012561    0.000033686    0.000029073
  21   O   :   -0.000008190   -0.000025224   -0.000008242
  22   C   :    0.000028321   -0.000006178   -0.000003616
  23   C   :    0.000017401   -0.000025487   -0.000038223
  24   C   :    0.000025450   -0.000002991   -0.000069209
  25   C   :   -0.000031361    0.000049748    0.000086250
  26   C   :    0.000103369    0.000001452   -0.000136721
  27   O   :   -0.000078976   -0.000071835    0.000043829
  28   H   :   -0.000003142    0.000003435    0.000010234
  29   H   :   -0.000006549   -0.000003305    0.000026504
  30   H   :    0.000006325   -0.000011934   -0.000013563
  31   H   :    0.000003953    0.000010153    0.000004386
  32   H   :   -0.000010197   -0.000006086   -0.000004487
  33   H   :    0.000006595    0.000025988    0.000006271
  34   H   :    0.000027522    0.000029331    0.000014846
  35   H   :    0.000004773   -0.000027299    0.000025617
  36   H   :    0.000008571   -0.000026027    0.000000756
  37   H   :    0.000010712    0.000015159    0.000009201
  38   H   :    0.000006867   -0.000004102    0.000005812
  39   H   :    0.000002228    0.000009255   -0.000004493
  40   H   :    0.000028992   -0.000010738   -0.000024954
  41   H   :    0.000003651   -0.000006089    0.000008459
  42   H   :   -0.000009784    0.000013234   -0.000010481
  43   H   :    0.000001286    0.000000170    0.000006065
  44   H   :    0.000018129    0.000019120   -0.000000449
  45   H   :   -0.000007527    0.000006602    0.000009579
  46   H   :   -0.000002944   -0.000013124   -0.000009439
  47   H   :    0.000018549    0.000032653   -0.000001887

Difference to translation invariance:
           :   -0.0000000001   -0.0000000001   -0.0000000000

Difference to rotation invariance:
           :   -0.0001579859    0.0002401645    0.0001838541

Norm of the Cartesian gradient     ...    0.0005038931
RMS gradient                       ...    0.0000424355
MAX gradient                       ...    0.0001906541

-------
TIMINGS
-------

Total SCF gradient time     ....      150.016 sec

Densities                   ....       0.007 sec  (  0.0%)
One electron gradient       ....       2.124 sec  (  1.4%)
RI-J Coulomb gradient       ....      10.592 sec  (  7.1%)
COSX gradient               ....     113.081 sec  ( 75.4%)
XC gradient                 ....      24.212 sec  ( 16.1%)

Maximum memory used throughout the entire SCFGRAD-calculation: 66.8 MB
------------------------------------------------------------------------------
                         ORCA GEOMETRY RELAXATION STEP
------------------------------------------------------------------------------

Reading the OPT-File                    .... done
Getting information on internals        .... done
Copying old internal coords+grads       .... done
Making the new internal coordinates     .... (2022 redundants) done
Validating the new internal coordinates .... (2022 redundants) done
Calculating the B-matrix                .... done
Calculating the G,G- and P matrices     .... done
Transforming gradient to internals      .... done
Projecting the internal gradient        .... done
Number of atoms                         ....  47
Number of internal coordinates          .... 220
Current Energy                          .... -1262.811409348 Eh
Current gradient norm                   ....     0.000503893 Eh/bohr
Maximum allowed component of the step   ....  0.300
Current trust radius                    ....  0.467
Updating the Hessian (BFGS)             .... done
Forming the augmented Hessian           .... done
Diagonalizing the augmented Hessian     .... done
Last element of RFO vector              ....  0.999909507
Lowest eigenvalues of augmented Hessian:
 -0.000001191  0.003068243  0.006965869  0.012721443  0.012804425
Length of the computed step             ....  0.013454019
The final length of the internal step   ....  0.013454019
Converting the step to Cartesian space:
 Initial RMS(Int)=    0.0009070698
Transforming coordinates:
 Iter   0:  RMS(Cart)=    0.0117720100 RMS(Int)=    0.0009071895
done
Storing new coordinates                 .... done
The predicted energy change is          ....    -0.000000596
Previously predicted energy change      ....    -0.000003709
Actually observed energy change         ....    -0.000004868
Ratio of predicted to observed change   ....     1.312443285
New trust radius                        ....     0.466666667

                                .--------------------.
          ----------------------|Geometry convergence|-------------------------
          Item                value                   Tolerance       Converged
          ---------------------------------------------------------------------
          Energy change      -0.0000048684            0.0000050000      YES
          RMS gradient        0.0000227563            0.0001000000      YES
          MAX gradient        0.0000932812            0.0003000000      YES
          RMS step            0.0009070698            0.0020000000      YES
          MAX step            0.0047338355            0.0040000000      NO
          -------------------------------------------------------------------------
          ........................................................
          Max(Bonds)      0.0001      Max(Angles)    0.04
          Max(Dihed)        0.27      Max(Improp)    0.00
          ---------------------------------------------------------------------

       The gradient convergence is overachieved with 
       reasonable convergence on the displacements
       Convergence will therefore be signaled now


                    ***********************HURRAY********************
                    ***        THE OPTIMIZATION HAS CONVERGED     ***
                    *************************************************


    ---------------------------------------------------------------------------
                         Redundant Internal Coordinates

                          --- Optimized Parameters ---  
                            (Angstroem and degrees)

        Definition                    OldVal   dE/dq     Step     FinalVal
    ----------------------------------------------------------------------------
     1. B(O   1,C   0)                1.4184 -0.000006  0.0000    1.4185   
     2. B(C   2,O   1)                1.3613 -0.000022 -0.0000    1.3613   
     3. B(C   3,C   2)                1.3911 -0.000013 -0.0000    1.3910   
     4. B(C   4,C   3)                1.4142 -0.000029  0.0000    1.4142   
     5. B(C   5,C   4)                1.4567  0.000009  0.0000    1.4567   
     6. B(C   6,C   5)                1.3519 -0.000017 -0.0000    1.3519   
     7. B(C   7,C   6)                1.4762  0.000015  0.0000    1.4762   
     8. B(O   8,C   7)                1.2267 -0.000093  0.0000    1.2267   
     9. B(C   9,C   7)                1.5340  0.000083 -0.0001    1.5339   
    10. B(C  10,C   9)                1.5373  0.000034  0.0000    1.5373   
    11. B(O  11,C  10)                1.2253 -0.000037 -0.0000    1.2253   
    12. B(C  12,C  10)                1.4759  0.000008  0.0000    1.4759   
    13. B(C  13,C  12)                1.3520 -0.000009 -0.0000    1.3520   
    14. B(C  14,C  13)                1.4558  0.000007  0.0000    1.4558   
    15. B(C  15,C  14)                1.4019  0.000030 -0.0000    1.4019   
    16. B(C  16,C  15)                1.3950 -0.000042  0.0000    1.3950   
    17. B(C  17,C  16)                1.3927  0.000021 -0.0000    1.3926   
    18. B(O  18,C  17)                1.3606  0.000020  0.0000    1.3606   
    19. B(C  19,C  17)                1.4202  0.000015  0.0000    1.4202   
    20. B(O  20,C  19)                1.3604 -0.000020  0.0000    1.3604   
    21. B(C  21,O  20)                1.4193  0.000002 -0.0000    1.4192   
    22. B(C  22,C  19)                1.3883  0.000003  0.0000    1.3883   
    23. B(C  22,C  14)                1.4155 -0.000053  0.0000    1.4155   
    24. B(C  23,C   4)                1.4038  0.000030 -0.0000    1.4038   
    25. B(C  24,C  23)                1.3921 -0.000012  0.0000    1.3921   
    26. B(C  25,C  24)                1.3961 -0.000009 -0.0000    1.3961   
    27. B(C  25,C   2)                1.4157  0.000048  0.0000    1.4157   
    28. B(O  26,C  25)                1.3609  0.000024 -0.0000    1.3608   
    29. B(H  27,C   0)                1.0986  0.000005 -0.0000    1.0986   
    30. B(H  28,C   0)                1.0985 -0.000001  0.0000    1.0985   
    31. B(H  29,C   0)                1.0916  0.000005 -0.0000    1.0916   
    32. B(H  30,C   3)                1.0846  0.000003  0.0000    1.0846   
    33. B(H  31,C   5)                1.0903  0.000003 -0.0000    1.0903   
    34. B(H  32,C   6)                1.0871 -0.000001  0.0000    1.0871   
    35. B(H  33,C   9)                1.0939  0.000012 -0.0000    1.0939   
    36. B(H  34,C   9)                1.0946  0.000002  0.0000    1.0947   
    37. B(H  35,C  12)                1.0870 -0.000002 -0.0000    1.0870   
    38. B(H  36,C  13)                1.0901 -0.000004  0.0000    1.0901   
    39. B(H  37,C  15)                1.0865  0.000000 -0.0000    1.0865   
    40. B(H  38,C  16)                1.0888  0.000007  0.0000    1.0888   
    41. B(H  39,O  18)                0.9706  0.000016 -0.0000    0.9706   
    42. B(H  40,C  21)                1.0984  0.000004  0.0000    1.0984   
    43. B(H  41,C  21)                1.0915  0.000005 -0.0000    1.0915   
    44. B(H  42,C  21)                1.0983 -0.000000  0.0000    1.0983   
    45. B(H  43,C  22)                1.0831 -0.000005 -0.0000    1.0831   
    46. B(H  44,C  23)                1.0852 -0.000004 -0.0000    1.0852   
    47. B(H  45,C  24)                1.0890  0.000009 -0.0000    1.0890   
    48. B(H  46,O  26)                0.9706  0.000011 -0.0000    0.9706   
    49. A(O   1,C   0,H  28)          111.60  0.000044   -0.01    111.60   
    50. A(H  27,C   0,H  28)          109.15 -0.000016   -0.00    109.14   
    51. A(H  28,C   0,H  29)          109.32 -0.000003    0.00    109.33   
    52. A(H  27,C   0,H  29)          109.33  0.000003    0.00    109.34   
    53. A(O   1,C   0,H  29)          105.79 -0.000041    0.00    105.79   
    54. A(O   1,C   0,H  27)          111.56  0.000012   -0.00    111.56   
    55. A(C   0,O   1,C   2)          117.98  0.000026   -0.00    117.98   
    56. A(O   1,C   2,C   3)          125.52 -0.000008   -0.00    125.52   
    57. A(O   1,C   2,C  25)          115.49  0.000001   -0.00    115.49   
    58. A(C   3,C   2,C  25)          118.98  0.000007    0.00    118.99   
    59. A(C   4,C   3,H  30)          118.38 -0.000017    0.01    118.39   
    60. A(C   2,C   3,H  30)          119.83  0.000004   -0.00    119.82   
    61. A(C   2,C   3,C   4)          121.79  0.000012   -0.00    121.79   
    62. A(C   3,C   4,C  23)          118.27 -0.000003   -0.00    118.27   
    63. A(C   3,C   4,C   5)          118.35  0.000025   -0.00    118.35   
    64. A(C   5,C   4,C  23)          123.37 -0.000022    0.00    123.38   
    65. A(C   4,C   5,H  31)          116.02 -0.000010   -0.01    116.01   
    66. A(C   4,C   5,C   6)          128.38 -0.000001    0.00    128.38   
    67. A(C   6,C   5,H  31)          115.60  0.000011    0.01    115.60   
    68. A(C   5,C   6,H  32)          122.34  0.000024   -0.00    122.33   
    69. A(C   7,C   6,H  32)          117.04 -0.000032    0.00    117.04   
    70. A(C   5,C   6,C   7)          120.62  0.000008    0.00    120.63   
    71. A(O   8,C   7,C   9)          120.57 -0.000002    0.01    120.58   
    72. A(C   6,C   7,C   9)          115.89 -0.000070   -0.00    115.88   
    73. A(C   6,C   7,O   8)          123.52  0.000072   -0.01    123.51   
    74. A(H  33,C   9,H  34)          110.24 -0.000017   -0.01    110.23   
    75. A(C   7,C   9,H  34)          107.48 -0.000020    0.01    107.49   
    76. A(C   7,C   9,C  10)          110.34  0.000007    0.03    110.37   
    77. A(C  10,C   9,H  34)          110.18  0.000042   -0.04    110.14   
    78. A(C   7,C   9,H  33)          111.03  0.000010   -0.01    111.02   
    79. A(C  10,C   9,H  33)          107.58 -0.000021    0.02    107.60   
    80. A(O  11,C  10,C  12)          123.74  0.000045    0.00    123.74   
    81. A(C   9,C  10,C  12)          115.61 -0.000031   -0.02    115.59   
    82. A(C   9,C  10,O  11)          120.65 -0.000015    0.01    120.66   
    83. A(C  10,C  12,H  35)          116.80 -0.000012   -0.00    116.80   
    84. A(C  13,C  12,H  35)          122.45  0.000034   -0.01    122.44   
    85. A(C  10,C  12,C  13)          120.74 -0.000022    0.01    120.76   
    86. A(C  14,C  13,H  36)          115.87 -0.000007   -0.00    115.87   
    87. A(C  12,C  13,H  36)          115.81 -0.000014    0.01    115.83   
    88. A(C  12,C  13,C  14)          128.31  0.000020   -0.01    128.30   
    89. A(C  15,C  14,C  22)          118.35 -0.000003    0.00    118.35   
    90. A(C  13,C  14,C  22)          122.71 -0.000033   -0.00    122.71   
    91. A(C  13,C  14,C  15)          118.94  0.000037    0.00    118.94   
    92. A(C  16,C  15,H  37)          119.66  0.000015   -0.00    119.66   
    93. A(C  14,C  15,H  37)          119.61 -0.000007    0.00    119.61   
    94. A(C  14,C  15,C  16)          120.73 -0.000008   -0.00    120.73   
    95. A(C  17,C  16,H  38)          119.21 -0.000013    0.00    119.21   
    96. A(C  15,C  16,H  38)          120.14 -0.000016   -0.00    120.14   
    97. A(C  15,C  16,C  17)          120.65  0.000028    0.00    120.65   
    98. A(O  18,C  17,C  19)          116.93 -0.000056    0.00    116.93   
    99. A(C  16,C  17,C  19)          119.56 -0.000036   -0.00    119.56   
   100. A(C  16,C  17,O  18)          123.51  0.000092   -0.00    123.51   
   101. A(C  17,O  18,H  39)          108.55 -0.000069    0.00    108.55   
   102. A(O  20,C  19,C  22)          125.48 -0.000017   -0.00    125.48   
   103. A(C  17,C  19,C  22)          119.33  0.000005    0.00    119.33   
   104. A(C  17,C  19,O  20)          115.19  0.000012    0.00    115.19   
   105. A(C  19,O  20,C  21)          117.97  0.000008    0.00    117.97   
   106. A(H  41,C  21,H  42)          109.39  0.000006    0.00    109.40   
   107. A(H  40,C  21,H  42)          109.15 -0.000006   -0.01    109.15   
   108. A(H  40,C  21,H  41)          109.36  0.000004    0.00    109.36   
   109. A(O  20,C  21,H  41)          105.78 -0.000036    0.00    105.78   
   110. A(O  20,C  21,H  40)          111.53  0.000020   -0.00    111.53   
   111. A(O  20,C  21,H  42)          111.55  0.000010   -0.00    111.55   
   112. A(C  14,C  22,C  19)          121.39  0.000015   -0.00    121.39   
   113. A(C  19,C  22,H  43)          119.48  0.000000   -0.00    119.48   
   114. A(C  14,C  22,H  43)          119.13 -0.000015    0.01    119.13   
   115. A(C   4,C  23,C  24)          120.37 -0.000012    0.00    120.37   
   116. A(C  24,C  23,H  44)          119.21  0.000020   -0.01    119.20   
   117. A(C   4,C  23,H  44)          120.42 -0.000008    0.01    120.43   
   118. A(C  25,C  24,H  45)          118.99 -0.000028    0.00    118.99   
   119. A(C  23,C  24,H  45)          119.95 -0.000001   -0.01    119.94   
   120. A(C  23,C  24,C  25)          121.06  0.000029    0.00    121.07   
   121. A(C  24,C  25,O  26)          123.34  0.000083    0.00    123.34   
   122. A(C   2,C  25,O  26)          117.13 -0.000050    0.00    117.13   
   123. A(C   2,C  25,C  24)          119.53 -0.000033   -0.00    119.52   
   124. A(C  25,O  26,H  46)          108.60 -0.000067    0.00    108.61   
   125. D(C   2,O   1,C   0,H  27)    -61.07 -0.000012    0.03    -61.04   
   126. D(C   2,O   1,C   0,H  28)     61.33  0.000007    0.01     61.34   
   127. D(C   2,O   1,C   0,H  29)   -179.87  0.000002    0.02   -179.85   
   128. D(C   3,C   2,O   1,C   0)     -0.21 -0.000006   -0.01     -0.22   
   129. D(C  25,C   2,O   1,C   0)    179.82 -0.000003   -0.00    179.81   
   130. D(H  30,C   3,C   2,C  25)    179.94 -0.000002    0.00    179.94   
   131. D(C   4,C   3,C   2,C  25)     -0.15 -0.000008    0.02     -0.13   
   132. D(H  30,C   3,C   2,O   1)     -0.03  0.000000    0.00     -0.03   
   133. D(C   4,C   3,C   2,O   1)    179.88 -0.000006    0.02    179.90   
   134. D(C  23,C   4,C   3,C   2)      0.16  0.000005   -0.02      0.14   
   135. D(C  23,C   4,C   3,H  30)   -179.93 -0.000001   -0.00   -179.93   
   136. D(C   5,C   4,C   3,H  30)     -0.07 -0.000003    0.01     -0.06   
   137. D(C   5,C   4,C   3,C   2)   -179.98  0.000003   -0.01   -179.99   
   138. D(C   6,C   5,C   4,C   3)    178.07 -0.000022    0.26    178.33   
   139. D(C   6,C   5,C   4,C  23)     -2.08 -0.000024    0.27     -1.81   
   140. D(H  31,C   5,C   4,C   3)     -1.71 -0.000015    0.24     -1.48   
   141. D(H  31,C   5,C   4,C  23)    178.14 -0.000017    0.25    178.39   
   142. D(H  32,C   6,C   5,C   4)      0.03 -0.000002    0.02      0.05   
   143. D(H  32,C   6,C   5,H  31)    179.81 -0.000009    0.04    179.85   
   144. D(C   7,C   6,C   5,H  31)     -0.35 -0.000008    0.02     -0.32   
   145. D(C   7,C   6,C   5,C   4)    179.87 -0.000002    0.00    179.87   
   146. D(C   9,C   7,C   6,H  32)     -1.75 -0.000013    0.07     -1.68   
   147. D(C   9,C   7,C   6,C   5)    178.40 -0.000014    0.09    178.48   
   148. D(O   8,C   7,C   6,H  32)    176.52  0.000003    0.05    176.57   
   149. D(O   8,C   7,C   6,C   5)     -3.33  0.000002    0.06     -3.26   
   150. D(H  34,C   9,C   7,C   6)   -163.37  0.000019    0.04   -163.32   
   151. D(H  33,C   9,C   7,O   8)    138.95 -0.000026    0.05    139.00   
   152. D(H  33,C   9,C   7,C   6)    -42.72 -0.000009    0.03    -42.69   
   153. D(C  10,C   9,C   7,O   8)   -101.86 -0.000041    0.09   -101.77   
   154. D(C  10,C   9,C   7,C   6)     76.46 -0.000024    0.07     76.53   
   155. D(O  11,C  10,C   9,C   7)   -109.44  0.000032   -0.25   -109.69   
   156. D(C  12,C  10,C   9,H  33)   -169.29  0.000004   -0.18   -169.47   
   157. D(C  12,C  10,C   9,C   7)     69.44  0.000000   -0.20     69.25   
   158. D(O  11,C  10,C   9,H  34)    132.03  0.000026   -0.25    131.78   
   159. D(O  11,C  10,C   9,H  33)     11.83  0.000036   -0.23     11.60   
   160. D(H  35,C  12,C  10,C   9)     -2.59  0.000010    0.01     -2.58   
   161. D(H  35,C  12,C  10,O  11)    176.25 -0.000023    0.06    176.32   
   162. D(C  13,C  12,C  10,C   9)    177.75  0.000019   -0.01    177.74   
   163. D(C  13,C  12,C  10,O  11)     -3.41 -0.000015    0.05     -3.36   
   164. D(H  36,C  13,C  12,H  35)   -179.93  0.000005   -0.02   -179.94   
   165. D(H  36,C  13,C  12,C  10)     -0.28 -0.000004   -0.00     -0.28   
   166. D(C  14,C  13,C  12,H  35)      0.23  0.000011   -0.02      0.21   
   167. D(C  14,C  13,C  12,C  10)    179.87  0.000001   -0.01    179.87   
   168. D(C  22,C  14,C  13,C  12)     -1.50  0.000015   -0.06     -1.55   
   169. D(C  22,C  14,C  13,H  36)    178.66  0.000020   -0.06    178.59   
   170. D(C  15,C  14,C  13,C  12)    178.62  0.000016   -0.07    178.55   
   171. D(C  15,C  14,C  13,H  36)     -1.23  0.000021   -0.07     -1.30   
   172. D(H  37,C  15,C  14,C  22)   -179.94 -0.000003    0.01   -179.93   
   173. D(H  37,C  15,C  14,C  13)     -0.05 -0.000004    0.02     -0.03   
   174. D(C  16,C  15,C  14,C  22)      0.12  0.000001    0.00      0.13   
   175. D(C  16,C  15,C  14,C  13)   -179.98  0.000000    0.01   -179.97   
   176. D(H  38,C  16,C  15,H  37)     -0.01 -0.000001   -0.00     -0.01   
   177. D(H  38,C  16,C  15,C  14)    179.93 -0.000005    0.00    179.93   
   178. D(C  17,C  16,C  15,H  37)    179.96 -0.000000   -0.00    179.95   
   179. D(C  17,C  16,C  15,C  14)     -0.10 -0.000004    0.00     -0.10   
   180. D(C  19,C  17,C  16,H  38)    179.96  0.000006   -0.01    179.96   
   181. D(C  19,C  17,C  16,C  15)     -0.01  0.000005   -0.01     -0.01   
   182. D(O  18,C  17,C  16,H  38)      0.02  0.000004   -0.01      0.02   
   183. D(O  18,C  17,C  16,C  15)   -179.95  0.000004   -0.00   -179.95   
   184. D(H  39,O  18,C  17,C  19)   -179.93 -0.000001   -0.00   -179.93   
   185. D(H  39,O  18,C  17,C  16)      0.01  0.000000   -0.00      0.01   
   186. D(O  20,C  19,C  17,O  18)      0.08  0.000002   -0.00      0.08   
   187. D(O  20,C  19,C  17,C  16)   -179.87  0.000000    0.00   -179.87   
   188. D(C  22,C  19,C  17,O  18)   -179.96 -0.000002    0.00   -179.96   
   189. D(C  22,C  19,C  17,C  16)      0.09 -0.000003    0.01      0.10   
   190. D(C  21,O  20,C  19,C  22)     -0.08  0.000008   -0.04     -0.12   
   191. D(C  21,O  20,C  19,C  17)    179.87  0.000005   -0.03    179.84   
   192. D(H  42,C  21,O  20,C  19)    -61.10 -0.000010    0.04    -61.06   
   193. D(H  41,C  21,O  20,C  19)   -179.95 -0.000002    0.03   -179.92   
   194. D(H  40,C  21,O  20,C  19)     61.25  0.000004    0.03     61.28   
   195. D(H  43,C  22,C  19,O  20)      0.12 -0.000013    0.02      0.14   
   196. D(H  43,C  22,C  19,C  17)   -179.84 -0.000009    0.02   -179.82   
   197. D(C  14,C  22,C  19,O  20)    179.88 -0.000004    0.01    179.89   
   198. D(C  14,C  22,C  19,C  17)     -0.07 -0.000000   -0.00     -0.07   
   199. D(H  43,C  22,C  14,C  15)    179.73  0.000010   -0.02    179.71   
   200. D(H  43,C  22,C  14,C  13)     -0.16  0.000011   -0.03     -0.19   
   201. D(C  19,C  22,C  14,C  15)     -0.04  0.000001   -0.00     -0.04   
   202. D(C  19,C  22,C  14,C  13)   -179.92  0.000002   -0.01   -179.94   
   203. D(H  44,C  23,C   4,C   5)     -0.20 -0.000000    0.02     -0.18   
   204. D(H  44,C  23,C   4,C   3)    179.65 -0.000002    0.03    179.69   
   205. D(C  24,C  23,C   4,C   5)   -179.93  0.000001   -0.00   -179.94   
   206. D(C  24,C  23,C   4,C   3)     -0.08 -0.000001    0.01     -0.07   
   207. D(H  45,C  24,C  23,H  44)      0.16 -0.000002   -0.01      0.15   
   208. D(H  45,C  24,C  23,C   4)    179.90 -0.000003    0.01    179.91   
   209. D(C  25,C  24,C  23,H  44)   -179.75  0.000001   -0.02   -179.76   
   210. D(C  25,C  24,C  23,C   4)     -0.01 -0.000000    0.00     -0.00   
   211. D(O  26,C  25,C  24,H  45)      0.08 -0.000000   -0.01      0.07   
   212. D(O  26,C  25,C  24,C  23)    179.99 -0.000003    0.00    179.99   
   213. D(C   2,C  25,C  24,H  45)   -179.89  0.000000   -0.01   -179.90   
   214. D(C   2,C  25,C  24,C  23)      0.02 -0.000003   -0.00      0.02   
   215. D(O  26,C  25,C   2,C   3)   -179.91  0.000007   -0.02   -179.93   
   216. D(O  26,C  25,C   2,O   1)      0.06  0.000005   -0.02      0.05   
   217. D(C  24,C  25,C   2,C   3)      0.06  0.000007   -0.01      0.05   
   218. D(C  24,C  25,C   2,O   1)   -179.97  0.000005   -0.01   -179.98   
   219. D(H  46,O  26,C  25,C  24)     -0.16  0.000002   -0.04     -0.20   
   220. D(H  46,O  26,C  25,C   2)    179.81  0.000002   -0.03    179.78   
    ----------------------------------------------------------------------------

Geometry step timings:
Preparation and reading OPT file:      0.014 s (40.000 %)
Internal coordinates            :      0.000 s ( 0.000 %)
B/P matrices and projection     :      0.007 s (20.000 %)
Hessian update/contruction      :      0.003 s ( 8.571 %)
Making the step                 :      0.005 s (14.286 %)
Converting the step to Cartesian:      0.001 s ( 2.857 %)
Storing new data                :      0.000 s ( 0.000 %)
Checking convergence            :      0.001 s ( 2.857 %)
Final printing                  :      0.004 s (11.429 %)
Total time                      :      0.035 s
                 *******************************************************
                 *** FINAL ENERGY EVALUATION AT THE STATIONARY POINT ***
                 ***               (AFTER   11 CYCLES)               ***
                 *******************************************************
---------------------------------
CARTESIAN COORDINATES (ANGSTROEM)
---------------------------------
  C     -1.516155   -7.400709    1.831240
  O     -0.702554   -7.633889    0.692958
  C      0.089669   -6.617132    0.255141
  C      0.171554   -5.352161    0.827988
  C      1.025946   -4.352604    0.307561
  C      1.052881   -3.053771    0.966546
  C      1.807751   -1.974086    0.663228
  C      1.693652   -0.731259    1.451579
  O      0.890351   -0.580842    2.366349
  C      2.626335    0.413387    1.035852
  C      2.103319    1.093399   -0.239843
  O      2.694475    0.962396   -1.305102
  C      0.857926    1.869774   -0.083611
  C      0.330297    2.547735   -1.127531
  C     -0.879803    3.356486   -1.159259
  C     -1.232000    4.003988   -2.351762
  C     -2.383215    4.788634   -2.423730
  C     -3.207769    4.943071   -1.312119
  O     -4.343182    5.692696   -1.317395
  C     -2.871167    4.294039   -0.094567
  O     -3.738806    4.503058    0.932174
  C     -3.460806    3.878864    2.176107
  C     -1.722374    3.516940   -0.033205
  C      1.802723   -4.662868   -0.819836
  C      1.726704   -5.925593   -1.401061
  C      0.882254   -6.908276   -0.881209
  O      0.771452   -8.156459   -1.411918
  H     -0.912251   -7.158814    2.716463
  H     -2.236515   -6.590448    1.654199
  H     -2.056653   -8.332849    2.006118
  H     -0.430311   -5.114166    1.698380
  H      0.380437   -2.934779    1.816520
  H      2.516484   -1.973217   -0.161025
  H      3.633106    0.041885    0.823601
  H      2.654104    1.131537    1.861562
  H      0.394880    1.860746    0.899767
  H      0.883165    2.481972   -2.064745
  H     -0.600639    3.893980   -3.229115
  H     -2.647049    5.288169   -3.354516
  H     -4.456002    6.076071   -2.201944
  H     -2.502782    4.218534    2.592412
  H     -4.271251    4.175207    2.844538
  H     -3.445750    2.784562    2.083931
  H     -1.464955    3.018480    0.893326
  H      2.466482   -3.920580   -1.251099
  H      2.331283   -6.158369   -2.276344
  H      1.360661   -8.219550   -2.180611

----------------------------
CARTESIAN COORDINATES (A.U.)
----------------------------
  NO LB      ZA    FRAG     MASS         X           Y           Z
   0 C     6.0000    0    12.011   -2.865117  -13.985313    3.460542
   1 O     8.0000    0    15.999   -1.327635  -14.425959    1.309501
   2 C     6.0000    0    12.011    0.169449  -12.504568    0.482147
   3 C     6.0000    0    12.011    0.324189  -10.114118    1.564670
   4 C     6.0000    0    12.011    1.938757   -8.225230    0.581206
   5 C     6.0000    0    12.011    1.989658   -5.770792    1.826507
   6 C     6.0000    0    12.011    3.416154   -3.730482    1.253320
   7 C     6.0000    0    12.011    3.200538   -1.381879    2.743087
   8 O     8.0000    0    15.999    1.682519   -1.097632    4.471752
   9 C     6.0000    0    12.011    4.963055    0.781187    1.957477
  10 C     6.0000    0    12.011    3.974698    2.066224   -0.453238
  11 O     8.0000    0    15.999    5.091821    1.818664   -2.466285
  12 C     6.0000    0    12.011    1.621244    3.533360   -0.158002
  13 C     6.0000    0    12.011    0.624170    4.814521   -2.130724
  14 C     6.0000    0    12.011   -1.662588    6.342839   -2.190682
  15 C     6.0000    0    12.011   -2.328143    7.566441   -4.444187
  16 C     6.0000    0    12.011   -4.503623    9.049208   -4.580186
  17 C     6.0000    0    12.011   -6.061806    9.341050   -2.479545
  18 O     8.0000    0    15.999   -8.207425   10.757637   -2.489517
  19 C     6.0000    0    12.011   -5.425719    8.114558   -0.178706
  20 O     8.0000    0    15.999   -7.065320    8.509546    1.761554
  21 C     6.0000    0    12.011   -6.539975    7.329991    4.112246
  22 C     6.0000    0    12.011   -3.254816    6.646054   -0.062748
  23 C     6.0000    0    12.011    3.406653   -8.811544   -1.549266
  24 C     6.0000    0    12.011    3.262998  -11.197747   -2.647621
  25 C     6.0000    0    12.011    1.667218  -13.054749   -1.665243
  26 O     8.0000    0    15.999    1.457832  -15.413474   -2.668138
  27 H     1.0000    0     1.008   -1.723905  -13.528198    5.133372
  28 H     1.0000    0     1.008   -4.226400  -12.454142    3.125983
  29 H     1.0000    0     1.008   -3.886511  -15.746802    3.791013
  30 H     1.0000    0     1.008   -0.813170   -9.664372    3.209473
  31 H     1.0000    0     1.008    0.718922   -5.545928    3.432725
  32 H     1.0000    0     1.008    4.755465   -3.728840   -0.304293
  33 H     1.0000    0     1.008    6.865575    0.079152    1.556381
  34 H     1.0000    0     1.008    5.015530    2.138296    3.517843
  35 H     1.0000    0     1.008    0.746216    3.516300    1.700314
  36 H     1.0000    0     1.008    1.668941    4.690247   -3.901802
  37 H     1.0000    0     1.008   -1.135043    7.358556   -6.102143
  38 H     1.0000    0     1.008   -5.002198    9.993191   -6.339117
  39 H     1.0000    0     1.008   -8.420623   11.482111   -4.161072
  40 H     1.0000    0     1.008   -4.729573    7.971874    4.898948
  41 H     1.0000    0     1.008   -8.071495    7.889998    5.375397
  42 H     1.0000    0     1.008   -6.511524    5.262059    3.938060
  43 H     1.0000    0     1.008   -2.768364    5.704100    1.688142
  44 H     1.0000    0     1.008    4.660975   -7.408822   -2.364235
  45 H     1.0000    0     1.008    4.405486  -11.637632   -4.301667
  46 H     1.0000    0     1.008    2.571277  -15.532698   -4.120758

--------------------------------
INTERNAL COORDINATES (ANGSTROEM)
--------------------------------
 C      0   0   0     0.000000000000     0.00000000     0.00000000
 O      1   0   0     1.418451284130     0.00000000     0.00000000
 C      2   1   0     1.361283895474   117.97699426     0.00000000
 C      3   2   1     1.391047082711   125.52276381   359.78354076
 C      4   3   2     1.414193240171   121.78681013   179.90240548
 C      5   4   3     1.456692782770   118.35287970   180.01046923
 C      6   5   4     1.351869114541   128.38449588   178.32908162
 C      7   6   5     1.476189162366   120.62540946   179.86808220
 O      8   7   6     1.226671254207   123.51178894   356.73692183
 C      8   7   6     1.533929732274   115.88194617   178.48485344
 C     10   8   7     1.537322702452   110.37206032    76.53356142
 O     11  10   8     1.225317609753   120.66335910   250.31332692
 C     11  10   8     1.475863267274   115.59022275    69.24712030
 C     13  11  10     1.351958525843   120.75594665   177.74154564
 C     14  13  11     1.455825186368   128.30180453   179.86542480
 C     15  14  13     1.401915237529   118.94315701   178.55221403
 C     16  15  14     1.395042622168   120.72902552   180.02674966
 C     17  16  15     1.392631161256   120.65008156   359.89787355
 O     18  17  16     1.360561924080   123.51179328   180.04975322
 C     18  17  16     1.420202778189   119.55788331     0.00000000
 O     20  18  17     1.360398932320   115.19268868   180.13453563
 C     21  20  18     1.419249962956   117.96955316   179.83940321
 C     20  18  17     1.388297786859   119.32873714     0.09783975
 C      5   4   3     1.403805769204   118.27014634     0.13775952
 C     24   5   4     1.392147104786   120.36787491   359.93052004
 C     25  24   5     1.396068811531   121.06563459     0.00000000
 O     26  25  24     1.360842184920   123.34315852   179.99031295
 H      1   2   3     1.098559886456   111.56326121   298.95601311
 H      1   2   3     1.098537583458   111.59524736    61.34444624
 H      1   2   3     1.091606773985   105.79454104   180.15305085
 H      4   3   2     1.084649856244   119.82365845   359.97497342
 H      6   5   4     1.090319746607   116.01250247   358.52286948
 H      7   6   5     1.087058713632   122.33162048     0.04586359
 H     10   8   7     1.093915071119   111.02420955   317.31004691
 H     10   8   7     1.094673112852   107.49022336   196.67697343
 H     13  11  10     1.086979838024   116.79948449   357.41964367
 H     14  13  11     1.090118593888   115.82765282   359.71640326
 H     16  15  14     1.086492861275   119.61274304   359.97000443
 H     17  16  15     1.088809466768   120.13978843   179.92973791
 H     19  18  17     0.970634617522   108.55108136     0.00000000
 H     22  21  20     1.098405095032   111.53253390    61.27507890
 H     22  21  20     1.091531054396   105.77689143   180.08103995
 H     22  21  20     1.098281240814   111.55150704   298.93698977
 H     23  20  18     1.083137442035   119.47646952   180.18143814
 H     24   5   4     1.085152306981   120.42743866   179.68719945
 H     25  24   5     1.088954350725   119.94403762   179.91076307
 H     27  26  25     0.970586385448   108.60591895   359.80321842

---------------------------
INTERNAL COORDINATES (A.U.)
---------------------------
 C      0   0   0     0.000000000000     0.00000000     0.00000000
 O      1   0   0     2.680484461315     0.00000000     0.00000000
 C      2   1   0     2.572453752964   117.97699426     0.00000000
 C      3   2   1     2.628698025713   125.52276381   359.78354076
 C      4   3   2     2.672437924367   121.78681013   179.90240548
 C      5   4   3     2.752750420694   118.35287970   180.01046923
 C      6   5   4     2.554662395390   128.38449588   178.32908162
 C      7   6   5     2.789593238734   120.62540946   179.86808220
 O      8   7   6     2.318072726804   123.51178894   356.73692183
 C      8   7   6     2.898707102676   115.88194617   178.48485344
 C     10   8   7     2.905118887094   110.37206032    76.53356142
 O     11  10   8     2.315514709505   120.66335910   250.31332692
 C     11  10   8     2.788977386263   115.59022275    69.24712030
 C     13  11  10     2.554831358264   120.75594665   177.74154564
 C     14  13  11     2.751110901100   128.30180453   179.86542480
 C     15  14  13     2.649235861901   118.94315701   178.55221403
 C     16  15  14     2.636248501045   120.72902552   180.02674966
 C     17  16  15     2.631691500339   120.65008156   359.89787355
 O     18  17  16     2.571089424752   123.51179328   180.04975322
 C     18  17  16     2.683794305411   119.55788331     0.00000000
 O     20  18  17     2.570781414964   115.19268868   180.13453563
 C     21  20  18     2.681993745565   117.96955316   179.83940321
 C     20  18  17     2.623502609492   119.32873714     0.09783975
 C      5   4   3     2.652808449015   118.27014634     0.13775952
 C     24   5   4     2.630776766178   120.36787491   359.93052004
 C     25  24   5     2.638187717902   121.06563459     0.00000000
 O     26  25  24     2.571619040987   123.34315852   179.99031295
 H      1   2   3     2.075977327113   111.56326121   298.95601311
 H      1   2   3     2.075935180556   111.59524736    61.34444624
 H      1   2   3     2.062837848765   105.79454104   180.15305085
 H      4   3   2     2.049691179499   119.82365845   359.97497342
 H      6   5   4     2.060405719493   116.01250247   358.52286948
 H      7   6   5     2.054243260256   122.33162048     0.04586359
 H     10   8   7     2.067199898183   111.02420955   317.31004691
 H     10   8   7     2.068632389458   107.49022336   196.67697343
 H     13  11  10     2.054094206959   116.79948449   357.41964367
 H     14  13  11     2.060025595943   115.82765282   359.71640326
 H     16  15  14     2.053173954270   119.61274304   359.97000443
 H     17  16  15     2.057551704211   120.13978843   179.92973791
 H     19  18  17     1.834233603219   108.55108136     0.00000000
 H     22  21  20     2.075684813714   111.53253390    61.27507890
 H     22  21  20     2.062694759479   105.77689143   180.08103995
 H     22  21  20     2.075450763161   111.55150704   298.93698977
 H     23  20  18     2.046833130842   119.47646952   180.18143814
 H     24   5   4     2.050640673787   120.42743866   179.68719945
 H     25  24   5     2.057825495212   119.94403762   179.91076307
 H     27  26  25     1.834142457809   108.60591895   359.80321842

---------------------
BASIS SET INFORMATION
---------------------
There are 3 groups of distinct atoms

 Group   1 Type C   : 10s4p1d contracted to 3s2p1d pattern {631/31/1}
 Group   2 Type O   : 10s4p1d contracted to 3s2p1d pattern {631/31/1}
 Group   3 Type H   : 4s contracted to 2s pattern {31}

Atom   0C    basis set group =>   1
Atom   1O    basis set group =>   2
Atom   2C    basis set group =>   1
Atom   3C    basis set group =>   1
Atom   4C    basis set group =>   1
Atom   5C    basis set group =>   1
Atom   6C    basis set group =>   1
Atom   7C    basis set group =>   1
Atom   8O    basis set group =>   2
Atom   9C    basis set group =>   1
Atom  10C    basis set group =>   1
Atom  11O    basis set group =>   2
Atom  12C    basis set group =>   1
Atom  13C    basis set group =>   1
Atom  14C    basis set group =>   1
Atom  15C    basis set group =>   1
Atom  16C    basis set group =>   1
Atom  17C    basis set group =>   1
Atom  18O    basis set group =>   2
Atom  19C    basis set group =>   1
Atom  20O    basis set group =>   2
Atom  21C    basis set group =>   1
Atom  22C    basis set group =>   1
Atom  23C    basis set group =>   1
Atom  24C    basis set group =>   1
Atom  25C    basis set group =>   1
Atom  26O    basis set group =>   2
Atom  27H    basis set group =>   3
Atom  28H    basis set group =>   3
Atom  29H    basis set group =>   3
Atom  30H    basis set group =>   3
Atom  31H    basis set group =>   3
Atom  32H    basis set group =>   3
Atom  33H    basis set group =>   3
Atom  34H    basis set group =>   3
Atom  35H    basis set group =>   3
Atom  36H    basis set group =>   3
Atom  37H    basis set group =>   3
Atom  38H    basis set group =>   3
Atom  39H    basis set group =>   3
Atom  40H    basis set group =>   3
Atom  41H    basis set group =>   3
Atom  42H    basis set group =>   3
Atom  43H    basis set group =>   3
Atom  44H    basis set group =>   3
Atom  45H    basis set group =>   3
Atom  46H    basis set group =>   3
---------------------------------
AUXILIARY/J BASIS SET INFORMATION
---------------------------------
There are 3 groups of distinct atoms

 Group   1 Type C   : 12s5p4d2f1g contracted to 6s4p3d1f1g pattern {711111/2111/211/2/1}
 Group   2 Type O   : 12s5p4d2f1g contracted to 6s4p3d1f1g pattern {711111/2111/211/2/1}
 Group   3 Type H   : 5s2p1d contracted to 3s1p1d pattern {311/2/1}

Atom   0C    basis set group =>   1
Atom   1O    basis set group =>   2
Atom   2C    basis set group =>   1
Atom   3C    basis set group =>   1
Atom   4C    basis set group =>   1
Atom   5C    basis set group =>   1
Atom   6C    basis set group =>   1
Atom   7C    basis set group =>   1
Atom   8O    basis set group =>   2
Atom   9C    basis set group =>   1
Atom  10C    basis set group =>   1
Atom  11O    basis set group =>   2
Atom  12C    basis set group =>   1
Atom  13C    basis set group =>   1
Atom  14C    basis set group =>   1
Atom  15C    basis set group =>   1
Atom  16C    basis set group =>   1
Atom  17C    basis set group =>   1
Atom  18O    basis set group =>   2
Atom  19C    basis set group =>   1
Atom  20O    basis set group =>   2
Atom  21C    basis set group =>   1
Atom  22C    basis set group =>   1
Atom  23C    basis set group =>   1
Atom  24C    basis set group =>   1
Atom  25C    basis set group =>   1
Atom  26O    basis set group =>   2
Atom  27H    basis set group =>   3
Atom  28H    basis set group =>   3
Atom  29H    basis set group =>   3
Atom  30H    basis set group =>   3
Atom  31H    basis set group =>   3
Atom  32H    basis set group =>   3
Atom  33H    basis set group =>   3
Atom  34H    basis set group =>   3
Atom  35H    basis set group =>   3
Atom  36H    basis set group =>   3
Atom  37H    basis set group =>   3
Atom  38H    basis set group =>   3
Atom  39H    basis set group =>   3
Atom  40H    basis set group =>   3
Atom  41H    basis set group =>   3
Atom  42H    basis set group =>   3
Atom  43H    basis set group =>   3
Atom  44H    basis set group =>   3
Atom  45H    basis set group =>   3
Atom  46H    basis set group =>   3
------------------------------------------------------------------------------
                             ORCA STARTUP CALCULATIONS
                           -- RI-GTO INTEGRALS CHOSEN --
------------------------------------------------------------------------------
------------------------------------------------------------------------------
                   ___                                                        
                  /   \      - P O W E R E D   B Y -                         
                 /     \                                                     
                 |  |  |   _    _      __       _____    __    __             
                 |  |  |  | |  | |    /  \     |  _  \  |  |  /  |          
                  \  \/   | |  | |   /    \    | | | |  |  | /  /          
                 / \  \   | |__| |  /  /\  \   | |_| |  |  |/  /          
                |  |  |   |  __  | /  /__\  \  |    /   |      \           
                |  |  |   | |  | | |   __   |  |    \   |  |\   \          
                \     /   | |  | | |  |  |  |  | |\  \  |  | \   \       
                 \___/    |_|  |_| |__|  |__|  |_| \__\ |__|  \__/        
                                                                              
                      - O R C A' S   B I G   F R I E N D -                    
                                      &                                       
                       - I N T E G R A L  F E E D E R -                       
                                                                              
 v1 FN, 2020, v2 2021, v3 2022-2024                                           
------------------------------------------------------------------------------


----------------------
SHARK INTEGRAL PACKAGE
----------------------

Number of atoms                             ...     47
Number of basis functions                   ...    418
Number of shells                            ...    202
Maximum angular momentum                    ...      2
Integral batch strategy                     ... SHARK/LIBINT Hybrid
RI-J (if used) integral strategy            ... SPLIT-RIJ (Revised 2003 algorithm where possible)
Printlevel                                  ...      1
Contraction scheme used                     ... SEGMENTED contraction
Prescreening option                         ... SCHWARTZ
   Thresh                                   ... 2.500e-11
   Tcut                                     ... 2.500e-12
   Tpresel                                  ... 2.500e-12 
Coulomb Range Separation                    ... NOT USED
Exchange Range Separation                   ... NOT USED
Multipole approximations                    ... NOT USED
Finite Nucleus Model                        ... NOT USED
CABS basis                                  ... NOT available
Auxiliary Coulomb fitting basis             ... AVAILABLE
   # of basis functions in Aux-J            ...   1543
   # of shells in Aux-J                     ...    505
   Maximum angular momentum in Aux-J        ...      4
Auxiliary J/K fitting basis                 ... NOT available
Auxiliary Correlation fitting basis         ... NOT available
Auxiliary 'external' fitting basis          ... NOT available

Checking pre-screening integrals            ... done (  0.0 sec) Dimension = 202
   => SHARK Basis and OBASIS are compatible. Storing Pre-screening
Shell pair information
Shell pair cut-off parameter TPreSel        ...   2.5e-12
Total number of shell pairs                 ...     20503
Shell pairs after pre-screening             ...     10430
Total number of primitive shell pairs       ...    118482
Primitive shell pairs kept                  ...     33411
          la=0 lb=0:   3566 shell pairs
          la=1 lb=0:   3598 shell pairs
          la=1 lb=1:    919 shell pairs
          la=2 lb=0:   1436 shell pairs
          la=2 lb=1:    756 shell pairs
          la=2 lb=2:    155 shell pairs

Checking whether 4 symmetric matrices of dimension 418 fit in memory
:Max Core in MB      =   4096.00
 MB in use           =     16.48
 MB left             =   4079.52
 MB needed           =      2.67
 Data fit in memory  = YES
Calculating RI/J V-Matrix + Cholesky decomp.... done (  0.2 sec)
Calculating Nuclear repulsion               ... done (  0.0 sec) ENN=   2153.635870172654 Eh

Diagonalization of the overlap matrix:
Smallest eigenvalue                        ... 4.106e-04
Time for diagonalization                   ...    0.024 sec
Threshold for overlap eigenvalues          ... 1.000e-07
Number of eigenvalues below threshold      ... 0
Time for construction of square roots      ...    0.019 sec
Total time needed                          ...    0.046 sec

-------------------
DFT GRID GENERATION
-------------------

General Integration Accuracy     IntAcc      ... 4.388
Radial Grid Type                 RadialGrid  ... OptM3 with GC (2021)
Angular Grid (max. ang.)         AngularGrid ... 4 (Lebedev-302)
Angular grid pruning method      GridPruning ... 4 (adaptive)
Weight generation scheme         WeightScheme... mBecke (2022)
Basis function cutoff            BFCut       ... 1.0000e-11
Integration weight cutoff        WCut        ... 1.0000e-14
Partially contracted basis set               ... off
Rotationally invariant grid construction     ... off
Angular grids for H and He will be reduced by one unit

Total number of grid points                  ...   226267
Total number of batches                      ...     3555
Average number of points per batch           ...       63
Average number of grid points per atom       ...     4814

--------------------
COSX GRID GENERATION
--------------------

GRIDX 1
-------
General Integration Accuracy     IntAcc      ... 3.816
Radial Grid Type                 RadialGrid  ... OptM3 with GC (2021)
Angular Grid (max. ang.)         AngularGrid ... 1 (Lebedev-50)
Angular grid pruning method      GridPruning ... 4 (adaptive)
Weight generation scheme         WeightScheme... mBecke (2022)
Basis function cutoff            BFCut       ... 1.0000e-11
Integration weight cutoff        WCut        ... 1.0000e-14
Partially contracted basis set               ... on
Rotationally invariant grid construction     ... off
Angular grids for H and He will be reduced by one unit

Total number of grid points                  ...    28749
Total number of batches                      ...      252
Average number of points per batch           ...      114
Average number of grid points per atom       ...      612
UseSFitting                                  ... on

GRIDX 2
-------
General Integration Accuracy     IntAcc      ... 4.020
Radial Grid Type                 RadialGrid  ... OptM3 with GC (2021)
Angular Grid (max. ang.)         AngularGrid ... 2 (Lebedev-110)
Angular grid pruning method      GridPruning ... 4 (adaptive)
Weight generation scheme         WeightScheme... mBecke (2022)
Basis function cutoff            BFCut       ... 1.0000e-11
Integration weight cutoff        WCut        ... 1.0000e-14
Partially contracted basis set               ... on
Rotationally invariant grid construction     ... off
Angular grids for H and He will be reduced by one unit

Total number of grid points                  ...    62746
Total number of batches                      ...      518
Average number of points per batch           ...      121
Average number of grid points per atom       ...     1335
UseSFitting                                  ... on

GRIDX 3
-------
General Integration Accuracy     IntAcc      ... 4.338
Radial Grid Type                 RadialGrid  ... OptM3 with GC (2021)
Angular Grid (max. ang.)         AngularGrid ... 3 (Lebedev-194)
Angular grid pruning method      GridPruning ... 4 (adaptive)
Weight generation scheme         WeightScheme... mBecke (2022)
Basis function cutoff            BFCut       ... 1.0000e-11
Integration weight cutoff        WCut        ... 1.0000e-14
Partially contracted basis set               ... on
Rotationally invariant grid construction     ... off
Angular grids for H and He will be reduced by one unit

Total number of grid points                  ...   137479
Total number of batches                      ...     1096
Average number of points per batch           ...      125
Average number of grid points per atom       ...     2925
UseSFitting                                  ... on
Grids setup in   8.3 sec
Initializing property integral containers    ... done (  0.0 sec)

SHARK setup successfully completed in   9.0 seconds

Maximum memory used throughout the entire STARTUP-calculation: 91.5 MB
-------------------------------------------------------------------------------
                                 ORCA GUESS
                   Start orbitals & Density for SCF / CASSCF
-------------------------------------------------------------------------------

------------
SCF SETTINGS
------------
Hamiltonian:
 Density Functional     Method          .... DFT(GTOs)
 Exchange Functional    Exchange        .... B88
   X-Alpha parameter    XAlpha          ....  0.666667
   Becke's b parameter  XBeta           ....  0.004200
 Correlation Functional Correlation     .... LYP
 LDA part of GGA corr.  LDAOpt          .... VWN-5
 Gradients option       PostSCFGGA      .... off
 Hybrid DFT is turned on
   Fraction HF Exchange ScalHFX         ....  0.200000
   Scaling of DF-GGA-X  ScalDFX         ....  0.720000
   Scaling of DF-GGA-C  ScalDFC         ....  0.810000
   Scaling of DF-LDA-C  ScalLDAC        ....  1.000000
   Perturbative correction              ....  0.000000
   NL short-range parameter             ....  4.800000
 RI-approximation to the Coulomb term is turned on
   Number of AuxJ basis functions       .... 1543
   RIJ-COSX (HFX calculated with COS-X)).... on


General Settings:
 Integral files         IntName         .... curcumin
 Hartree-Fock type      HFTyp           .... RHF
 Total Charge           Charge          ....    0
 Multiplicity           Mult            ....    1
 Number of Electrons    NEL             ....  194
 Basis Dimension        Dim             ....  418
 Nuclear Repulsion      ENuc            ....   2153.6358701727 Eh

Convergence Acceleration:
 AO-DIIS                CNVDIIS         .... on
   Start iteration      DIISMaxIt       ....    12
   Startup error        DIISStart       ....  0.200000
   # of expansion vecs  DIISMaxEq       ....     5
   Bias factor          DIISBfac        ....   1.050
   Max. coefficient     DIISMaxC        ....  10.000
 MO-DIIS                CNVKDIIS        .... off
 Trust-Rad. Augm. Hess. CNVTRAH         .... auto
   Auto Start mean grad. ratio tolernc. ....  1.125000
   Auto Start start iteration           ....     1
   Auto Start num. interpolation iter.  ....    10
   Max. Number of Micro iterations      ....    24
   Max. Number of Macro iterations      .... Maxiter - #DIIS iter
   Number of Davidson start vectors     ....     2
   Converg. threshold    (grad. norm)   ....   1.000e-05
   Grad. Scal. Fac. for Micro threshold ....   0.100
   Minimum threshold for Micro iter.    ....   1.000e-02
   NR start threshold (gradient norm)   ....   1.000e-04
   Initial trust radius                 ....   0.400
   Minimum AH scaling param. (alpha)    ....   1.000
   Maximum AH scaling param. (alpha)    .... 1000.000
   Quad. conv. algorithm                .... NR
   White noise on init. David. guess    .... on
   Maximum white noise                  ....   0.010
   Pseudo random numbers                .... off
   Inactive MOs                         .... canonical
   Orbital update algorithm             .... Taylor
   Preconditioner                       .... Diag
   Full preconditioner red. dimension   ....   250
 SOSCF                 CNVSOSCF           .... on
   Start iteration     SOSCFMaxIt         ....   150
   Startup grad/error  SOSCFStart         ....  0.003300
   Hessian update      SOSCFHessUp        .... L-BFGS
   Autom. constraints  SOSCFAutoConstrain .... off
 Level Shifting         CNVShift        .... on
   Level shift para.    LevelShift      ....    0.2500
   Turn off err/grad.   ShiftErr        ....    0.0010
 Zerner damping         CNVZerner       .... off
 Static damping         CNVDamp         .... on
   Fraction old density DampFac         ....    0.7000
   Max. Damping (<1)    DampMax         ....    0.9800
   Min. Damping (>=0)   DampMin         ....    0.0000
   Turn off err/grad.   DampErr         ....    0.1000

SCF Procedure:
 Maximum # iterations   MaxIter         ....   125
 SCF integral mode      SCFMode         .... Direct
   Integral package                     .... SHARK and LIBINT hybrid scheme
 Reset frequency        DirectResetFreq ....    20
 Integral Threshold     Thresh          ....  2.500e-11 Eh
 Primitive CutOff       TCut            ....  2.500e-12 Eh

Convergence Tolerance:
 Convergence Check Mode ConvCheckMode   .... Total+1el-Energy
 Convergence forced     ConvForced      .... 0
 Energy Change          TolE            ....  1.000e-08 Eh
 1-El. energy change                    ....  1.000e-05 Eh
 Orbital Gradient       TolG            ....  1.000e-05
 Orbital Rotation angle TolX            ....  1.000e-05
 DIIS Error             TolErr          ....  5.000e-07

---------------------
INITIAL GUESS: MOREAD
---------------------
Guess MOs are being read from file: curcumin.gbw
Input Geometry matches current geometry (good)
Input basis set matches current basis set (good)
Occupation numbers will be reassigned to an Aufbau configuration
MOs were renormalized
MOs were reorthogonalized (Cholesky)
                      ------------------
                      INITIAL GUESS DONE (   0.1 sec)
                      ------------------
             **** ENERGY FILE WAS UPDATED (curcumin.en.tmp) ****
Finished Guess after   0.2 sec
Maximum memory used throughout the entire GUESS-calculation: 30.3 MB

-------------------------------------------------------------------------------------------
                                      ORCA LEAN-SCF
                              memory conserving SCF solver
-------------------------------------------------------------------------------------------

----------------------------------------D-I-I-S--------------------------------------------
Iteration    Energy (Eh)           Delta-E    RMSDP     MaxDP     DIISErr   Damp  Time(sec)
-------------------------------------------------------------------------------------------
               ***  Starting incremental Fock matrix formation  ***
                              *** Initializing SOSCF ***
---------------------------------------S-O-S-C-F--------------------------------------
Iteration    Energy (Eh)           Delta-E    RMSDP     MaxDP     MaxGrad    Time(sec)
--------------------------------------------------------------------------------------
    1    -1262.8112477168747319     0.00e+00  4.36e-05  1.79e-03  2.94e-04    34.3
               *** Restarting incremental Fock matrix formation ***
    2    -1262.8113478159161787    -1.00e-04  2.32e-05  7.51e-04  3.86e-04    34.0
    3    -1262.8113592727372634    -1.15e-05  5.54e-06  2.30e-04  5.53e-05    18.8
    4    -1262.8113592875206450    -1.48e-08  2.81e-06  1.60e-04  6.25e-05    15.5
    5    -1262.8113595228364829    -2.35e-07  1.18e-06  6.07e-05  8.15e-06    13.8
    6    -1262.8113595181721394     4.66e-09  7.15e-07  4.50e-05  1.30e-05    12.3
                 **** Energy Check signals convergence ****

               *****************************************************
               *                     SUCCESS                       *
               *           SCF CONVERGED AFTER   6 CYCLES          *
               *****************************************************

Recomputing exchange energy using gridx3       ... done (   57.551 sec)
Old exchange energy                            :    -33.083256612 Eh
New exchange energy                            :    -33.083313410 Eh
Exchange energy change after final integration :     -0.000056798 Eh
Total energy after final integration           :  -1262.811416329 Eh
             **** ENERGY FILE WAS UPDATED (curcumin.en.tmp) ****

----------------
TOTAL SCF ENERGY
----------------

Total Energy       :      -1262.81141632939648 Eh          -34362.84561 eV

Components:
Nuclear Repulsion  :       2153.63587017265354 Eh           58603.41137 eV
Electronic Energy  :      -3416.44722970403609 Eh          -92966.25543 eV
One Electron Energy:      -6000.62751371549257 Eh         -163285.37592 eV
Two Electron Energy:       2584.18028401145648 Eh           70319.12048 eV

Virial components:
Potential Energy   :      -2518.26192838633324 Eh          -68525.39083 eV
Kinetic Energy     :       1255.45051205693653 Eh           34162.54522 eV
Virial Ratio       :          2.00586315764880

DFT components:
N(Alpha)           :       96.999872680837 electrons
N(Beta)            :       96.999872680837 electrons
N(Total)           :      193.999745361674 electrons
E(X)               :     -131.494934128133 Eh       
E(C)               :       -7.826698576906 Eh       
E(XC)              :     -139.321632705039 Eh       

---------------
SCF CONVERGENCE
---------------

  Last Energy change         ...   -4.6643e-09  Tolerance :   1.0000e-08
  Last MAX-Density change    ...    4.5022e-05  Tolerance :   1.0000e-07
  Last RMS-Density change    ...    7.1467e-07  Tolerance :   5.0000e-09
  Last DIIS Error            ...    2.0174e-03  Tolerance :   5.0000e-07
  Last Orbital Gradient      ...    1.3011e-05  Tolerance :   1.0000e-05
  Last Orbital Rotation      ...    1.8145e-05  Tolerance :   1.0000e-05


----------------
ORBITAL ENERGIES
----------------

  NO   OCC          E(Eh)            E(eV) 
   0   2.0000     -19.180545      -521.9292 
   1   2.0000     -19.180212      -521.9201 
   2   2.0000     -19.174189      -521.7562 
   3   2.0000     -19.173048      -521.7252 
   4   2.0000     -19.117592      -520.2161 
   5   2.0000     -19.116304      -520.1811 
   6   2.0000     -10.259687      -279.1803 
   7   2.0000     -10.258671      -279.1526 
   8   2.0000     -10.253251      -279.0051 
   9   2.0000     -10.252987      -278.9980 
  10   2.0000     -10.246520      -278.8220 
  11   2.0000     -10.246336      -278.8170 
  12   2.0000     -10.233057      -278.4556 
  13   2.0000     -10.230814      -278.3946 
  14   2.0000     -10.196088      -277.4497 
  15   2.0000     -10.194127      -277.3963 
  16   2.0000     -10.193969      -277.3920 
  17   2.0000     -10.192394      -277.3491 
  18   2.0000     -10.191044      -277.3124 
  19   2.0000     -10.189070      -277.2587 
  20   2.0000     -10.188334      -277.2387 
  21   2.0000     -10.187897      -277.2268 
  22   2.0000     -10.187330      -277.2113 
  23   2.0000     -10.185529      -277.1623 
  24   2.0000     -10.175356      -276.8855 
  25   2.0000     -10.173899      -276.8459 
  26   2.0000     -10.173107      -276.8243 
  27   2.0000      -1.076683       -29.2980 
  28   2.0000      -1.076139       -29.2832 
  29   2.0000      -1.056688       -28.7540 
  30   2.0000      -1.055897       -28.7324 
  31   2.0000      -1.020155       -27.7598 
  32   2.0000      -1.015479       -27.6326 
  33   2.0000      -0.858943       -23.3730 
  34   2.0000      -0.857567       -23.3356 
  35   2.0000      -0.796629       -21.6774 
  36   2.0000      -0.793358       -21.5884 
  37   2.0000      -0.764368       -20.7995 
  38   2.0000      -0.757890       -20.6232 
  39   2.0000      -0.756177       -20.5766 
  40   2.0000      -0.738915       -20.1069 
  41   2.0000      -0.725457       -19.7407 
  42   2.0000      -0.699616       -19.0375 
  43   2.0000      -0.696090       -18.9416 
  44   2.0000      -0.651542       -17.7294 
  45   2.0000      -0.641076       -17.4446 
  46   2.0000      -0.621659       -16.9162 
  47   2.0000      -0.610708       -16.6182 
  48   2.0000      -0.585516       -15.9327 
  49   2.0000      -0.573759       -15.6128 
  50   2.0000      -0.553553       -15.0629 
  51   2.0000      -0.552676       -15.0391 
  52   2.0000      -0.529469       -14.4076 
  53   2.0000      -0.518003       -14.0956 
  54   2.0000      -0.515838       -14.0367 
  55   2.0000      -0.515286       -14.0216 
  56   2.0000      -0.490232       -13.3399 
  57   2.0000      -0.484787       -13.1917 
  58   2.0000      -0.476989       -12.9795 
  59   2.0000      -0.470351       -12.7989 
  60   2.0000      -0.469135       -12.7658 
  61   2.0000      -0.468618       -12.7517 
  62   2.0000      -0.459269       -12.4973 
  63   2.0000      -0.447588       -12.1795 
  64   2.0000      -0.442816       -12.0496 
  65   2.0000      -0.442044       -12.0286 
  66   2.0000      -0.437972       -11.9178 
  67   2.0000      -0.424693       -11.5565 
  68   2.0000      -0.419305       -11.4099 
  69   2.0000      -0.415513       -11.3067 
  70   2.0000      -0.414500       -11.2791 
  71   2.0000      -0.413518       -11.2524 
  72   2.0000      -0.401766       -10.9326 
  73   2.0000      -0.398480       -10.8432 
  74   2.0000      -0.388298       -10.5661 
  75   2.0000      -0.384190       -10.4544 
  76   2.0000      -0.373464       -10.1625 
  77   2.0000      -0.365298        -9.9403 
  78   2.0000      -0.364250        -9.9118 
  79   2.0000      -0.363354        -9.8874 
  80   2.0000      -0.357437        -9.7264 
  81   2.0000      -0.350887        -9.5481 
  82   2.0000      -0.349290        -9.5047 
  83   2.0000      -0.348395        -9.4803 
  84   2.0000      -0.348129        -9.4731 
  85   2.0000      -0.332018        -9.0347 
  86   2.0000      -0.331022        -9.0076 
  87   2.0000      -0.329833        -8.9752 
  88   2.0000      -0.329472        -8.9654 
  89   2.0000      -0.275865        -7.5067 
  90   2.0000      -0.274351        -7.4655 
  91   2.0000      -0.245483        -6.6799 
  92   2.0000      -0.238141        -6.4801 
  93   2.0000      -0.234937        -6.3930 
  94   2.0000      -0.226904        -6.1744 
  95   2.0000      -0.202770        -5.5177 
  96   2.0000      -0.202090        -5.4991 
  97   0.0000      -0.068531        -1.8648 
  98   0.0000      -0.052217        -1.4209 
  99   0.0000       0.003750         0.1020 
 100   0.0000       0.005227         0.1422 
 101   0.0000       0.019505         0.5308 
 102   0.0000       0.034724         0.9449 
 103   0.0000       0.061670         1.6781 
 104   0.0000       0.062587         1.7031 
 105   0.0000       0.087089         2.3698 
 106   0.0000       0.090831         2.4716 
 107   0.0000       0.091743         2.4965 
*Only the first 10 virtual orbitals were printed.

                    ********************************
                    * MULLIKEN POPULATION ANALYSIS *
                    ********************************

-----------------------
MULLIKEN ATOMIC CHARGES
-----------------------
   0 C :   -0.211707
   1 O :   -0.475040
   2 C :    0.339149
   3 C :   -0.285037
   4 C :    0.176466
   5 C :   -0.153214
   6 C :   -0.203774
   7 C :    0.382711
   8 O :   -0.440510
   9 C :   -0.435676
  10 C :    0.380731
  11 O :   -0.433624
  12 C :   -0.206812
  13 C :   -0.158313
  14 C :    0.177792
  15 C :   -0.194395
  16 C :   -0.208078
  17 C :    0.310343
  18 O :   -0.612882
  19 C :    0.346343
  20 O :   -0.475682
  21 C :   -0.212880
  22 C :   -0.275022
  23 C :   -0.177402
  24 C :   -0.207130
  25 C :    0.312065
  26 O :   -0.614176
  27 H :    0.152591
  28 H :    0.152670
  29 H :    0.172285
  30 H :    0.142621
  31 H :    0.158696
  32 H :    0.145363
  33 H :    0.167759
  34 H :    0.170917
  35 H :    0.148305
  36 H :    0.160578
  37 H :    0.136945
  38 H :    0.124412
  39 H :    0.414691
  40 H :    0.153501
  41 H :    0.171856
  42 H :    0.156652
  43 H :    0.146231
  44 H :    0.138957
  45 H :    0.125762
  46 H :    0.414962
Sum of atomic charges:    0.0000000

--------------------------------
MULLIKEN REDUCED ORBITAL CHARGES
--------------------------------
  0 C s       :     3.249716  s :     3.249716
      pz      :     0.839824  p :     2.902276
      px      :     0.957757
      py      :     1.104695
      dz2     :     0.016773  d :     0.059715
      dxz     :     0.017630
      dyz     :     0.006355
      dx2y2   :     0.004415
      dxy     :     0.014542

  1 O s       :     3.872674  s :     3.872674
      pz      :     1.477526  p :     4.572178
      px      :     1.515769
      py      :     1.578883
      dz2     :     0.006072  d :     0.030188
      dxz     :     0.004943
      dyz     :     0.006252
      dx2y2   :     0.005582
      dxy     :     0.007338

  2 C s       :     3.060588  s :     3.060588
      pz      :     0.887155  p :     2.530967
      px      :     0.854863
      py      :     0.788949
      dz2     :     0.012231  d :     0.069296
      dxz     :     0.008854
      dyz     :     0.015313
      dx2y2   :     0.015969
      dxy     :     0.016928

  3 C s       :     3.200850  s :     3.200850
      pz      :     1.009796  p :     3.049442
      px      :     1.038531
      py      :     1.001114
      dz2     :     0.005305  d :     0.034745
      dxz     :     0.006931
      dyz     :     0.007713
      dx2y2   :     0.007765
      dxy     :     0.007031

  4 C s       :     3.118900  s :     3.118900
      pz      :     0.859901  p :     2.663535
      px      :     0.909191
      py      :     0.894444
      dz2     :     0.008135  d :     0.041099
      dxz     :     0.006004
      dyz     :     0.010286
      dx2y2   :     0.008564
      dxy     :     0.008110

  5 C s       :     3.228759  s :     3.228759
      pz      :     0.960153  p :     2.887234
      px      :     0.950413
      py      :     0.976669
      dz2     :     0.005026  d :     0.037221
      dxz     :     0.007411
      dyz     :     0.008070
      dx2y2   :     0.009340
      dxy     :     0.007375

  6 C s       :     3.205966  s :     3.205966
      pz      :     0.995242  p :     2.965655
      px      :     1.014689
      py      :     0.955723
      dz2     :     0.004372  d :     0.032154
      dxz     :     0.007307
      dyz     :     0.007161
      dx2y2   :     0.007687
      dxy     :     0.005626

  7 C s       :     3.092242  s :     3.092242
      pz      :     0.784632  p :     2.435788
      px      :     0.769241
      py      :     0.881916
      dz2     :     0.018102  d :     0.089259
      dxz     :     0.015143
      dyz     :     0.023035
      dx2y2   :     0.013742
      dxy     :     0.019237

  8 O s       :     3.868624  s :     3.868624
      pz      :     1.376769  p :     4.544889
      px      :     1.413628
      py      :     1.754492
      dz2     :     0.008588  d :     0.026997
      dxz     :     0.007182
      dyz     :     0.004092
      dx2y2   :     0.003757
      dxy     :     0.003379

  9 C s       :     3.306472  s :     3.306472
      pz      :     1.038411  p :     3.094069
      px      :     1.030237
      py      :     1.025421
      dz2     :     0.006734  d :     0.035135
      dxz     :     0.004422
      dyz     :     0.010161
      dx2y2   :     0.006329
      dxy     :     0.007491

 10 C s       :     3.091992  s :     3.091992
      pz      :     0.779023  p :     2.437948
      px      :     0.843966
      py      :     0.814959
      dz2     :     0.027569  d :     0.089329
      dxz     :     0.022623
      dyz     :     0.019567
      dx2y2   :     0.009942
      dxy     :     0.009627

 11 O s       :     3.866288  s :     3.866288
      pz      :     1.456737  p :     4.540166
      px      :     1.579666
      py      :     1.503764
      dz2     :     0.007892  d :     0.027170
      dxz     :     0.007863
      dyz     :     0.007096
      dx2y2   :     0.002183
      dxy     :     0.002138

 12 C s       :     3.206124  s :     3.206124
      pz      :     0.976860  p :     2.968638
      px      :     0.972972
      py      :     1.018806
      dz2     :     0.010286  d :     0.032049
      dxz     :     0.008636
      dyz     :     0.004403
      dx2y2   :     0.003611
      dxy     :     0.005113

 13 C s       :     3.229151  s :     3.229151
      pz      :     1.010868  p :     2.891851
      px      :     0.951223
      py      :     0.929761
      dz2     :     0.009059  d :     0.037311
      dxz     :     0.010957
      dyz     :     0.004759
      dx2y2   :     0.006904
      dxy     :     0.005632

 14 C s       :     3.118467  s :     3.118467
      pz      :     0.816763  p :     2.662515
      px      :     0.893422
      py      :     0.952330
      dz2     :     0.010053  d :     0.041226
      dxz     :     0.010629
      dyz     :     0.008240
      dx2y2   :     0.005910
      dxy     :     0.006393

 15 C s       :     3.206428  s :     3.206428
      pz      :     0.984618  p :     2.951236
      px      :     0.978077
      py      :     0.988541
      dz2     :     0.008290  d :     0.036730
      dxz     :     0.011311
      dyz     :     0.005463
      dx2y2   :     0.006626
      dxy     :     0.005039

 16 C s       :     3.171595  s :     3.171595
      pz      :     0.942483  p :     3.001626
      px      :     1.008686
      py      :     1.050457
      dz2     :     0.007287  d :     0.034856
      dxz     :     0.009219
      dyz     :     0.007487
      dx2y2   :     0.005644
      dxy     :     0.005219

 17 C s       :     3.065079  s :     3.065079
      pz      :     0.941046  p :     2.555069
      px      :     0.742905
      py      :     0.871118
      dz2     :     0.013942  d :     0.069509
      dxz     :     0.014370
      dyz     :     0.010517
      dx2y2   :     0.016474
      dxy     :     0.014206

 18 O s       :     3.894267  s :     3.894267
      pz      :     1.508005  p :     4.689018
      px      :     1.546123
      py      :     1.634890
      dz2     :     0.010205  d :     0.029597
      dxz     :     0.003780
      dyz     :     0.005376
      dx2y2   :     0.005216
      dxy     :     0.005021

 19 C s       :     3.059972  s :     3.059972
      pz      :     0.719886  p :     2.524068
      px      :     0.844418
      py      :     0.959764
      dz2     :     0.015121  d :     0.069617
      dxz     :     0.019510
      dyz     :     0.014247
      dx2y2   :     0.011443
      dxy     :     0.009296

 20 O s       :     3.872589  s :     3.872589
      pz      :     1.229227  p :     4.572891
      px      :     1.632369
      py      :     1.711295
      dz2     :     0.005411  d :     0.030202
      dxz     :     0.009001
      dyz     :     0.006856
      dx2y2   :     0.004599
      dxy     :     0.004335

 21 C s       :     3.250833  s :     3.250833
      pz      :     0.788833  p :     2.902499
      px      :     1.093668
      py      :     1.019998
      dz2     :     0.014378  d :     0.059548
      dxz     :     0.015871
      dyz     :     0.012065
      dx2y2   :     0.013545
      dxy     :     0.003690

 22 C s       :     3.192367  s :     3.192367
      pz      :     1.018989  p :     3.048095
      px      :     1.006322
      py      :     1.022784
      dz2     :     0.008793  d :     0.034560
      dxz     :     0.007133
      dyz     :     0.006774
      dx2y2   :     0.006036
      dxy     :     0.005825

 23 C s       :     3.199209  s :     3.199209
      pz      :     0.986433  p :     2.941639
      px      :     0.992335
      py      :     0.962870
      dz2     :     0.007304  d :     0.036555
      dxz     :     0.006037
      dyz     :     0.008770
      dx2y2   :     0.005335
      dxy     :     0.009109

 24 C s       :     3.173441  s :     3.173441
      pz      :     1.005716  p :     2.998613
      px      :     1.005032
      py      :     0.987864
      dz2     :     0.005584  d :     0.035075
      dxz     :     0.006265
      dyz     :     0.008370
      dx2y2   :     0.006714
      dxy     :     0.008142

 25 C s       :     3.063647  s :     3.063647
      pz      :     0.904488  p :     2.554836
      px      :     0.955191
      py      :     0.695157
      dz2     :     0.012739  d :     0.069451
      dxz     :     0.008272
      dyz     :     0.016505
      dx2y2   :     0.016679
      dxy     :     0.015256

 26 O s       :     3.894475  s :     3.894475
      pz      :     1.497676  p :     4.690130
      px      :     1.697262
      py      :     1.495192
      dz2     :     0.004445  d :     0.029571
      dxz     :     0.008738
      dyz     :     0.003739
      dx2y2   :     0.007611
      dxy     :     0.005038

 27 H s       :     0.847409  s :     0.847409

 28 H s       :     0.847330  s :     0.847330

 29 H s       :     0.827715  s :     0.827715

 30 H s       :     0.857379  s :     0.857379

 31 H s       :     0.841304  s :     0.841304

 32 H s       :     0.854637  s :     0.854637

 33 H s       :     0.832241  s :     0.832241

 34 H s       :     0.829083  s :     0.829083

 35 H s       :     0.851695  s :     0.851695

 36 H s       :     0.839422  s :     0.839422

 37 H s       :     0.863055  s :     0.863055

 38 H s       :     0.875588  s :     0.875588

 39 H s       :     0.585309  s :     0.585309

 40 H s       :     0.846499  s :     0.846499

 41 H s       :     0.828144  s :     0.828144

 42 H s       :     0.843348  s :     0.843348

 43 H s       :     0.853769  s :     0.853769

 44 H s       :     0.861043  s :     0.861043

 45 H s       :     0.874238  s :     0.874238

 46 H s       :     0.585038  s :     0.585038



                     *******************************
                     * LOEWDIN POPULATION ANALYSIS *
                     *******************************

----------------------
LOEWDIN ATOMIC CHARGES
----------------------
   0 C :   -0.204257
   1 O :   -0.153905
   2 C :    0.052942
   3 C :   -0.161462
   4 C :   -0.041069
   5 C :   -0.058998
   6 C :   -0.195422
   7 C :    0.115348
   8 O :   -0.234908
   9 C :   -0.280189
  10 C :    0.115525
  11 O :   -0.229166
  12 C :   -0.199436
  13 C :   -0.059683
  14 C :   -0.040491
  15 C :   -0.120923
  16 C :   -0.180426
  17 C :    0.065868
  18 O :   -0.294757
  19 C :    0.056757
  20 O :   -0.153341
  21 C :   -0.204430
  22 C :   -0.161120
  23 C :   -0.118350
  24 C :   -0.174627
  25 C :    0.064115
  26 O :   -0.295425
  27 H :    0.119240
  28 H :    0.119241
  29 H :    0.136993
  30 H :    0.140173
  31 H :    0.146382
  32 H :    0.135951
  33 H :    0.146316
  34 H :    0.148778
  35 H :    0.136407
  36 H :    0.147651
  37 H :    0.136561
  38 H :    0.130948
  39 H :    0.328971
  40 H :    0.119896
  41 H :    0.136866
  42 H :    0.121366
  43 H :    0.141808
  44 H :    0.137750
  45 H :    0.131478
  46 H :    0.329053

-------------------------------
LOEWDIN REDUCED ORBITAL CHARGES
-------------------------------
  0 C s       :     2.973551  s :     2.973551
      pz      :     0.936421  p :     3.111032
      px      :     1.029924
      py      :     1.144688
      dz2     :     0.034671  d :     0.119674
      dxz     :     0.034966
      dyz     :     0.013359
      dx2y2   :     0.007826
      dxy     :     0.028852

  1 O s       :     3.455029  s :     3.455029
      pz      :     1.506435  p :     4.629181
      px      :     1.529997
      py      :     1.592749
      dz2     :     0.014465  d :     0.069695
      dxz     :     0.013630
      dyz     :     0.013601
      dx2y2   :     0.011857
      dxy     :     0.016141

  2 C s       :     2.846574  s :     2.846574
      pz      :     1.006362  p :     2.933293
      px      :     0.950438
      py      :     0.976493
      dz2     :     0.029452  d :     0.167191
      dxz     :     0.022598
      dyz     :     0.036292
      dx2y2   :     0.038591
      dxy     :     0.040257

  3 C s       :     2.914478  s :     2.914478
      pz      :     1.062790  p :     3.165303
      px      :     1.054970
      py      :     1.047543
      dz2     :     0.012034  d :     0.081681
      dxz     :     0.012819
      dyz     :     0.019500
      dx2y2   :     0.019702
      dxy     :     0.017626

  4 C s       :     2.861224  s :     2.861224
      pz      :     1.032293  p :     3.074913
      px      :     1.020469
      py      :     1.022151
      dz2     :     0.019972  d :     0.104932
      dxz     :     0.015994
      dyz     :     0.027239
      dx2y2   :     0.021233
      dxy     :     0.020494

  5 C s       :     2.926039  s :     2.926039
      pz      :     1.013924  p :     3.046321
      px      :     0.994955
      py      :     1.037442
      dz2     :     0.011792  d :     0.086638
      dxz     :     0.014184
      dyz     :     0.019166
      dx2y2   :     0.022434
      dxy     :     0.019062

  6 C s       :     2.935878  s :     2.935878
      pz      :     1.058478  p :     3.181002
      px      :     1.067710
      py      :     1.054814
      dz2     :     0.010447  d :     0.078543
      dxz     :     0.014058
      dyz     :     0.018946
      dx2y2   :     0.019549
      dxy     :     0.015542

  7 C s       :     2.883474  s :     2.883474
      pz      :     0.909626  p :     2.789247
      px      :     0.894558
      py      :     0.985062
      dz2     :     0.038609  d :     0.211931
      dxz     :     0.038301
      dyz     :     0.057731
      dx2y2   :     0.031366
      dxy     :     0.045923

  8 O s       :     3.563235  s :     3.563235
      pz      :     1.423192  p :     4.616907
      px      :     1.451795
      py      :     1.741920
      dz2     :     0.013336  d :     0.054765
      dxz     :     0.019254
      dyz     :     0.008261
      dx2y2   :     0.007319
      dxy     :     0.006595

  9 C s       :     2.962900  s :     2.962900
      pz      :     1.082519  p :     3.243228
      px      :     1.083754
      py      :     1.076955
      dz2     :     0.014328  d :     0.074061
      dxz     :     0.009133
      dyz     :     0.021755
      dx2y2   :     0.012502
      dxy     :     0.016343

 10 C s       :     2.882999  s :     2.882999
      pz      :     0.988256  p :     2.789151
      px      :     0.951666
      py      :     0.849228
      dz2     :     0.069458  d :     0.212325
      dxz     :     0.054961
      dyz     :     0.043581
      dx2y2   :     0.022097
      dxy     :     0.022227

 11 O s       :     3.562604  s :     3.562604
      pz      :     1.529056  p :     4.611603
      px      :     1.589054
      py      :     1.493493
      dz2     :     0.018495  d :     0.054959
      dxz     :     0.018185
      dyz     :     0.011000
      dx2y2   :     0.003800
      dxy     :     0.003479

 12 C s       :     2.935709  s :     2.935709
      pz      :     1.090691  p :     3.185235
      px      :     1.043623
      py      :     1.050920
      dz2     :     0.024420  d :     0.078492
      dxz     :     0.020098
      dyz     :     0.011549
      dx2y2   :     0.008335
      dxy     :     0.014091

 13 C s       :     2.925588  s :     2.925588
      pz      :     1.098346  p :     3.047234
      px      :     1.002230
      py      :     0.946658
      dz2     :     0.021807  d :     0.086861
      dxz     :     0.024749
      dyz     :     0.012450
      dx2y2   :     0.014287
      dxy     :     0.013568

 14 C s       :     2.861036  s :     2.861036
      pz      :     1.049509  p :     3.074201
      px      :     1.018739
      py      :     1.005954
      dz2     :     0.027929  d :     0.105254
      dxz     :     0.028428
      dyz     :     0.020761
      dx2y2   :     0.012973
      dxy     :     0.015163

 15 C s       :     2.914510  s :     2.914510
      pz      :     1.062339  p :     3.120716
      px      :     1.043569
      py      :     1.014808
      dz2     :     0.019592  d :     0.085698
      dxz     :     0.025262
      dyz     :     0.013190
      dx2y2   :     0.014559
      dxy     :     0.013095

 16 C s       :     2.913183  s :     2.913183
      pz      :     1.050917  p :     3.183249
      px      :     1.066056
      py      :     1.066276
      dz2     :     0.017695  d :     0.083994
      dxz     :     0.023946
      dyz     :     0.015491
      dx2y2   :     0.013454
      dxy     :     0.013409

 17 C s       :     2.853229  s :     2.853229
      pz      :     1.066106  p :     2.915004
      px      :     0.910942
      py      :     0.937955
      dz2     :     0.033852  d :     0.165899
      dxz     :     0.037016
      dyz     :     0.025524
      dx2y2   :     0.035907
      dxy     :     0.033600

 18 O s       :     3.524502  s :     3.524502
      pz      :     1.517642  p :     4.715373
      px      :     1.562091
      py      :     1.635641
      dz2     :     0.016590  d :     0.054882
      dxz     :     0.007408
      dyz     :     0.009391
      dx2y2   :     0.010499
      dxy     :     0.010995

 19 C s       :     2.846987  s :     2.846987
      pz      :     0.922703  p :     2.928581
      px      :     0.988258
      py      :     1.017619
      dz2     :     0.039101  d :     0.167675
      dxz     :     0.047647
      dyz     :     0.033076
      dx2y2   :     0.025595
      dxy     :     0.022256

 20 O s       :     3.454990  s :     3.454990
      pz      :     1.277627  p :     4.628663
      px      :     1.639959
      py      :     1.711078
      dz2     :     0.016919  d :     0.069688
      dxz     :     0.021931
      dyz     :     0.016685
      dx2y2   :     0.007637
      dxy     :     0.006515

 21 C s       :     2.973965  s :     2.973965
      pz      :     0.886206  p :     3.111128
      px      :     1.139191
      py      :     1.085730
      dz2     :     0.028493  d :     0.119338
      dxz     :     0.032859
      dyz     :     0.025067
      dx2y2   :     0.026519
      dxy     :     0.006400

 22 C s       :     2.911018  s :     2.911018
      pz      :     1.072660  p :     3.168874
      px      :     1.046373
      py      :     1.049841
      dz2     :     0.020259  d :     0.081228
      dxz     :     0.018799
      dyz     :     0.014050
      dx2y2   :     0.013466
      dxy     :     0.014655

 23 C s       :     2.911604  s :     2.911604
      pz      :     1.036937  p :     3.121474
      px      :     1.027529
      py      :     1.057008
      dz2     :     0.016885  d :     0.085272
      dxz     :     0.013153
      dyz     :     0.022309
      dx2y2   :     0.013598
      dxy     :     0.019328

 24 C s       :     2.913602  s :     2.913602
      pz      :     1.060610  p :     3.176721
      px      :     1.050698
      py      :     1.065413
      dz2     :     0.012805  d :     0.084304
      dxz     :     0.011853
      dyz     :     0.021066
      dx2y2   :     0.017735
      dxy     :     0.020845

 25 C s       :     2.852814  s :     2.852814
      pz      :     0.996240  p :     2.917290
      px      :     1.016114
      py      :     0.904936
      dz2     :     0.029771  d :     0.165781
      dxz     :     0.019569
      dyz     :     0.041026
      dx2y2   :     0.039139
      dxy     :     0.036276

 26 O s       :     3.524433  s :     3.524433
      pz      :     1.504260  p :     4.716153
      px      :     1.693958
      py      :     1.517935
      dz2     :     0.008997  d :     0.054838
      dxz     :     0.013624
      dyz     :     0.009139
      dx2y2   :     0.014065
      dxy     :     0.009015

 27 H s       :     0.880760  s :     0.880760

 28 H s       :     0.880759  s :     0.880759

 29 H s       :     0.863007  s :     0.863007

 30 H s       :     0.859827  s :     0.859827

 31 H s       :     0.853618  s :     0.853618

 32 H s       :     0.864049  s :     0.864049

 33 H s       :     0.853684  s :     0.853684

 34 H s       :     0.851222  s :     0.851222

 35 H s       :     0.863593  s :     0.863593

 36 H s       :     0.852349  s :     0.852349

 37 H s       :     0.863439  s :     0.863439

 38 H s       :     0.869052  s :     0.869052

 39 H s       :     0.671029  s :     0.671029

 40 H s       :     0.880104  s :     0.880104

 41 H s       :     0.863134  s :     0.863134

 42 H s       :     0.878634  s :     0.878634

 43 H s       :     0.858192  s :     0.858192

 44 H s       :     0.862250  s :     0.862250

 45 H s       :     0.868522  s :     0.868522

 46 H s       :     0.670947  s :     0.670947



                      *****************************
                      * MAYER POPULATION ANALYSIS *
                      *****************************

  NA   - Mulliken gross atomic population
  ZA   - Total nuclear charge
  QA   - Mulliken gross atomic charge
  VA   - Mayer's total valence
  BVA  - Mayer's bonded valence
  FA   - Mayer's free valence

  ATOM       NA         ZA         QA         VA         BVA        FA
  0 C      6.2117     6.0000    -0.2117     3.7744     3.7744    -0.0000
  1 O      8.4750     8.0000    -0.4750     2.0220     2.0220    -0.0000
  2 C      5.6609     6.0000     0.3391     3.8129     3.8129     0.0000
  3 C      6.2850     6.0000    -0.2850     3.8705     3.8705     0.0000
  4 C      5.8235     6.0000     0.1765     3.9694     3.9694     0.0000
  5 C      6.1532     6.0000    -0.1532     3.9092     3.9092    -0.0000
  6 C      6.2038     6.0000    -0.2038     3.8112     3.8112     0.0000
  7 C      5.6173     6.0000     0.3827     3.9529     3.9529     0.0000
  8 O      8.4405     8.0000    -0.4405     2.0777     2.0777    -0.0000
  9 C      6.4357     6.0000    -0.4357     3.7424     3.7424     0.0000
 10 C      5.6193     6.0000     0.3807     3.9633     3.9633    -0.0000
 11 O      8.4336     8.0000    -0.4336     2.0902     2.0902    -0.0000
 12 C      6.2068     6.0000    -0.2068     3.7973     3.7973    -0.0000
 13 C      6.1583     6.0000    -0.1583     3.9152     3.9152     0.0000
 14 C      5.8222     6.0000     0.1778     3.9807     3.9807    -0.0000
 15 C      6.1944     6.0000    -0.1944     3.9298     3.9298     0.0000
 16 C      6.2081     6.0000    -0.2081     3.8899     3.8899     0.0000
 17 C      5.6897     6.0000     0.3103     3.8371     3.8371     0.0000
 18 O      8.6129     8.0000    -0.6129     1.9032     1.9032    -0.0000
 19 C      5.6537     6.0000     0.3463     3.8151     3.8151    -0.0000
 20 O      8.4757     8.0000    -0.4757     2.0230     2.0230     0.0000
 21 C      6.2129     6.0000    -0.2129     3.7718     3.7718    -0.0000
 22 C      6.2750     6.0000    -0.2750     3.8614     3.8614     0.0000
 23 C      6.1774     6.0000    -0.1774     3.9228     3.9228    -0.0000
 24 C      6.2071     6.0000    -0.2071     3.8973     3.8973    -0.0000
 25 C      5.6879     6.0000     0.3121     3.8357     3.8357    -0.0000
 26 O      8.6142     8.0000    -0.6142     1.9009     1.9009     0.0000
 27 H      0.8474     1.0000     0.1526     0.9284     0.9284    -0.0000
 28 H      0.8473     1.0000     0.1527     0.9282     0.9282    -0.0000
 29 H      0.8277     1.0000     0.1723     0.9318     0.9318     0.0000
 30 H      0.8574     1.0000     0.1426     0.9426     0.9426    -0.0000
 31 H      0.8413     1.0000     0.1587     0.9461     0.9461    -0.0000
 32 H      0.8546     1.0000     0.1454     0.9417     0.9417     0.0000
 33 H      0.8322     1.0000     0.1678     0.9385     0.9385     0.0000
 34 H      0.8291     1.0000     0.1709     0.9370     0.9370    -0.0000
 35 H      0.8517     1.0000     0.1483     0.9449     0.9449     0.0000
 36 H      0.8394     1.0000     0.1606     0.9454     0.9454     0.0000
 37 H      0.8631     1.0000     0.1369     0.9386     0.9386     0.0000
 38 H      0.8756     1.0000     0.1244     0.9408     0.9408     0.0000
 39 H      0.5853     1.0000     0.4147     0.7990     0.7990     0.0000
 40 H      0.8465     1.0000     0.1535     0.9283     0.9283     0.0000
 41 H      0.8281     1.0000     0.1719     0.9318     0.9318     0.0000
 42 H      0.8433     1.0000     0.1567     0.9276     0.9276    -0.0000
 43 H      0.8538     1.0000     0.1462     0.9441     0.9441     0.0000
 44 H      0.8610     1.0000     0.1390     0.9402     0.9402    -0.0000
 45 H      0.8742     1.0000     0.1258     0.9406     0.9406    -0.0000
 46 H      0.5850     1.0000     0.4150     0.7988     0.7988     0.0000

  Mayer bond orders larger than 0.100000
B(  0-C ,  1-O ) :   0.9270 B(  0-C , 27-H ) :   0.9278 B(  0-C , 28-H ) :   0.9278 
B(  0-C , 29-H ) :   0.9489 B(  1-O ,  2-C ) :   0.9756 B(  2-C ,  3-C ) :   1.3979 
B(  2-C , 25-C ) :   1.2959 B(  3-C ,  4-C ) :   1.3165 B(  3-C , 30-H ) :   0.9079 
B(  4-C ,  5-C ) :   1.0977 B(  4-C , 23-C ) :   1.4027 B(  5-C ,  6-C ) :   1.7130 
B(  5-C , 31-H ) :   0.9044 B(  6-C ,  7-C ) :   1.0519 B(  6-C , 32-H ) :   0.9121 
B(  7-C ,  8-O ) :   1.8598 B(  7-C ,  9-C ) :   0.9391 B(  9-C , 10-C ) :   0.9379 
B(  9-C , 33-H ) :   0.9192 B(  9-C , 34-H ) :   0.9181 B( 10-C , 11-O ) :   1.8801 
B( 10-C , 12-C ) :   1.0466 B( 12-C , 13-C ) :   1.7069 B( 12-C , 35-H ) :   0.9073 
B( 13-C , 14-C ) :   1.1079 B( 13-C , 36-H ) :   0.9055 B( 14-C , 15-C ) :   1.3928 
B( 14-C , 22-C ) :   1.3280 B( 15-C , 16-C ) :   1.4020 B( 15-C , 37-H ) :   0.9217 
B( 16-C , 17-C ) :   1.4124 B( 16-C , 38-H ) :   0.9208 B( 17-C , 18-O ) :   0.9977 
B( 17-C , 19-C ) :   1.2750 B( 18-O , 39-H ) :   0.7746 B( 19-C , 20-O ) :   0.9768 
B( 19-C , 22-C ) :   1.4213 B( 20-O , 21-C ) :   0.9244 B( 21-C , 40-H ) :   0.9278 
B( 21-C , 41-H ) :   0.9488 B( 21-C , 42-H ) :   0.9272 B( 22-C , 43-H ) :   0.8994 
B( 23-C , 24-C ) :   1.4292 B( 23-C , 44-H ) :   0.9155 B( 24-C , 25-C ) :   1.3909 
B( 24-C , 45-H ) :   0.9206 B( 25-C , 26-O ) :   0.9944 B( 26-O , 46-H ) :   0.7745 


-------
TIMINGS
-------

Total SCF time: 0 days 0 hours 3 min 17 sec 

Total time                  ....     197.597 sec
Sum of individual times     ....     186.746 sec  ( 94.5%)

SCF preparation             ....       0.306 sec  (  0.2%)
Fock matrix formation       ....     185.537 sec  ( 93.9%)
  Startup                   ....       0.016 sec  (  0.0% of F)
  Split-RI-J                ....      18.986 sec  ( 10.2% of F)
  Chain of spheres X        ....     159.401 sec  ( 85.9% of F)
  XC integration            ....      17.516 sec  (  9.4% of F)
    Basis function eval.    ....       6.605 sec  ( 37.7% of XC)
    Density eval.           ....       3.737 sec  ( 21.3% of XC)
    XC-Functional eval.     ....       0.747 sec  (  4.3% of XC)
    XC-Potential eval.      ....       5.485 sec  ( 31.3% of XC)
Diagonalization             ....       0.000 sec  (  0.0%)
Density matrix formation    ....       0.120 sec  (  0.1%)
Total Energy calculation    ....       0.098 sec  (  0.0%)
Population analysis         ....       0.138 sec  (  0.1%)
Orbital Transformation      ....       0.058 sec  (  0.0%)
Orbital Orthonormalization  ....       0.000 sec  (  0.0%)
DIIS solution               ....       0.093 sec  (  0.0%)
SOSCF solution              ....       0.396 sec  (  0.2%)
Finished LeanSCF after 197.8 sec

Maximum memory used throughout the entire LEANSCF-calculation: 59.6 MB

-------------------------   --------------------
FINAL SINGLE POINT ENERGY     -1262.811416329396
-------------------------   --------------------

                                *** OPTIMIZATION RUN DONE ***


------------------------------------------------------------------------------
                              ORCA PROPERTY CALCULATIONS
------------------------------------------------------------------------------

GBWName                                 ... curcumin.gbw
Number of atoms                         ...     47
Number of basis functions               ...    418
Max core memory                         ...   4096 MB

Electric properties:
Dipole moment                           ... YES
Quadrupole moment                       ...  NO
Static polarizability (Dipole/Dipole)   ...  NO
Static polarizability (Dipole/Quad.)    ...  NO
Static polarizability (Quad./Quad.)     ...  NO
Static polarizability (Velocity)        ...  NO
Static hyperpolarizability              ...  NO

Atomic electric properties:
Dipole moment                           ...  NO
Quadrupole moment                       ...  NO
Static polarizability                   ...  NO

Choice of electric origin               ... Center of mass
Position of electric origin             ...    -0.474801    -1.263763    -0.125425

General magnetic properties:
Magnetizability                         ...  NO

EPR properties:
g-Tensor (aka g-matrix)                 ...  NO
Zero-Field splitting spin-orbit         ...  NO
Zero-field splitting spin-spin          ...  NO
Hyperfine couplings                     ...  NO (   0 nuclei)
Quadrupole couplings                    ...  NO (   0 nuclei)
Contact density                         ...  NO (   0 nuclei)

NMR properties:
Chemical shifts                         ...  NO (   0 nuclei)
Spin-rotation constants                 ...  NO (   0 nuclei)
Spin-spin couplings                     ...  NO (   0 nuclei,    0 pairs)

Choice of magnetic origin               ... GIAO
Position of magnetic origin             ...     0.000000     0.000000     0.000000

Properties with geometric perturbations:
SCF Hessian                             ...  NO
IR spectrum                             ...  NO
VCD spectrum                            ...  NO
X-ray spectroscopy properties:
SCF XES/XAS/RIXS spectra                ...  NO

SCF SOC stabilization energy            ...  NO
Diagonal Born-Oppenheimer correction    ...  NO

-------------
DIPOLE MOMENT
-------------

Method             : SCF
Type of density    : Electron Density
Multiplicity       :   1
Irrep              :   0
Energy             : -1262.8114163293964793 Eh
Basis              : AO
                                X                 Y                 Z
Electronic contribution:      2.553880771       1.638608405      -6.590602646
Nuclear contribution   :     -3.212809271      -1.947145643       6.102333376
                        -----------------------------------------
Total Dipole Moment    :     -0.658928500      -0.308537238      -0.488269270
                        -----------------------------------------
Magnitude (a.u.)       :      0.876235628
Magnitude (Debye)      :      2.227213966



--------------------
Rotational spectrum 
--------------------
 
Rotational constants in cm-1:             0.009534             0.001854             0.001758 
Rotational constants in MHz :           285.807898            55.583002            52.689810 

Dipole components along the rotational axes: 
x,y,z [a.u.] :    -0.096271    -0.615106    -0.616575 
x,y,z [Debye]:    -0.244702    -1.563476    -1.567209 

 

Dipole moment calculation done in   0.0 sec 

Maximum memory used throughout the entire PROP-calculation: 27.9 MB

--------------------------------
SUGGESTED CITATIONS FOR THIS RUN
--------------------------------

Below you find a list of papers that are relevant to this ORCA run
We neither can nor want to force you to cite these papers, but we appreciate if you do
You receive ORCA, which is the product of decades of hard work by many enthusiastic individuals, for free
The only thing we kindly ask in return is that you cite our papers,
We deeply appreciate it, if you show your appreciation for ORCA by not just citing the generic ORCA reference.

Please note that relegating all ORCA citations to the supporting information does *not* help us.
SI sections are not indexed - citations you put there will not count into any citation statistics
But we need these citations in order to attract the funding resources that allow us to do what we are doing

Therefore, if you are a happy ORCA user, please consider citing a few of the papers listed below in the main body of your paper

In addition to the list printed below, the program has created the file curcumin.bibtex that contains the list in bibtex format
You can import this file easily into all common literature databanks and citation aid programs

It goes without saying that in many instances, there are alternative algorithms to achieve similar
results as the ones you have gotten from ORCA. It is, of course, also the case that in some instances
ORCA just re-implements algorithms worked out by others. We are fully aware of that and we are also
fully appreciative of our colleagues work. Hence this citation list should not be read as indicating
that the listed papers, which are focused on our own work, are the only ones worth citing. It simply
meant to make it easier for users to cite ORCA specific papers. It is not a substitute for doing your
own literature research and citing the relevant literature in a scientifically appropriate manner.

List of essential papers. We consider these as the minimum necessary citations

  1. Neese, F.
     Software update: the ORCA program system, version 6.0
     WIRES Comput. Molec. Sci. 2025 15(1), e70019
     doi.org/10.1002/wcms.70019

List of papers to cite with high priority. The work reported in these papers was absolutely
necessary for this run to complete.
Our perspective: the developers of density functionals and basis sets usually get cited in chemistry papers
Good! But without the algorithms to do something with them, the functionals or basis sets would not do anything.
Hence, in our opinion, the algorithm design and method developments papers are equally worthy of getting cited

  1. Neese, F.
     An improvement of the resolution of the identity approximation for the formation of the Coulomb matrix
     J. Comp. Chem. 2003 24(14), 1740-1747
     doi.org/10.1002/jcc.10318
  2. Neese, F.; Wennmohs, F.; Hansen, A.; Becker, U.
     Efficient, approximate and parallel Hartree-Fock and hybrid DFT calculations. A 'chain-of-spheres' algorithm for the Hartree-Fock exchange
     Chem. Phys. 2009 356(1-3), 98-109
     doi.org/10.1016/j.chemphys.2008.10.036
  3. Helmich-Paris, B.; de Souza, B.; Neese, F.; Izsák, R.
     An improved chain of spheres for exchange algorithm
     J. Chem. Phys. 2021 155(10), 104109
     doi.org/10.1063/5.0058766
  4. Neese, F.
     The SHARK Integral Generation and Digestion System
     J. Comp. Chem. 2022 44(3), 381
     doi.org/10.1002/jcc.26942

List of suggested additional citations. These are papers that are important in the 'surrounding' of 
of this run, or papers that preceded the highly important papers. If you like your results we are grateful for a citation.

  1. Izsak, R.; Neese, F.
     An overlap fitted chain of spheres exchange method
     J. Chem. Phys. 2011 135 , 144105
     doi.org/10.1063/1.3646921
  2. Izsak, R.; Hansen, A.; Neese, F.
     The resolution of identity and chain of spheres approximations for the LPNO-CCSD singles Fock term
     Molec. Phys. 2012 110 , 2413-2417
     doi.org/10.1080/00268976.2012.687466
  3. Neese, F.
     The ORCA program system
     WIRES Comput. Molec. Sci. 2012 2(1), 73-78
     doi.org/10.1002/wcms.81
  4. Izsak, R.; Neese, F.; Klopper, W.
     Robust fitting techniques in the chain of spheres approximation to the Fock exchange: The role of the complementary space
     J. Chem. Phys. 2013 139 , 
     doi.org/10.1063/1.4819264
  5. Neese, F.
     Software update: the ORCA program system, version 4.0
     WIRES Comput. Molec. Sci. 2018 8(1), 1-6
     doi.org/10.1002/wcms.1327
  6. Neese, F.; Wennmohs, F.; Becker, U.; Riplinger, C.
     The ORCA quantum chemistry program package
     J. Chem. Phys. 2020 152(22), 224108
     doi.org/10.1063/5.0004608
  7. Neese, F.
     Software update: The ORCA program system—Version 5.0
     WIRES Comput. Molec. Sci. 2022 12(1), e1606
     doi.org/10.1002/wcms.1606

List of optional additional citations

  1. Neese, F.
     Approximate second-order SCF convergence for spin unrestricted wavefunctions
     Chem. Phys. Lett. 2000 325(1-3), 93-98
     doi.org/10.1016/s0009-2614(00)00662-x

Timings for individual modules:

Sum of individual times          ...     5479.951 sec (=  91.333 min)
Startup calculation              ...      113.079 sec (=   1.885 min)   2.1 %
SCF iterations                   ...     3296.244 sec (=  54.937 min)  60.2 %
Property calculations            ...        0.358 sec (=   0.006 min)   0.0 %
SCF Gradient evaluation          ...     2069.790 sec (=  34.497 min)  37.8 %
Geometry relaxation              ...        0.480 sec (=   0.008 min)   0.0 %
                             ****ORCA TERMINATED NORMALLY****
TOTAL RUN TIME: 0 days 1 hours 31 minutes 22 seconds 295 msec
