68
Coordinates from ORCA-job doxorubicin E -1927.418930855389
  C          -0.79988380841209      4.63922635259293      3.65251952382155
  C           0.11627643164977      3.49379213554403      3.21435150331175
  C           0.02753664512400      2.21334265845421      4.07333318048343
  C          -1.31073809383640      1.43724401128925      3.90882096624412
  C          -1.86363491011248      1.64241702549852      2.48192625631756
  C          -0.78583675121227      2.01778605260901      1.47227233075040
  O          -0.08882221795205      3.20602753585137      1.81614610910305
  O           0.08822332685990      0.90694892223070      1.34999330537016
  C           0.95040152822824      0.92340701504538      0.20428344284449
  C           2.36760876718711      1.33275257200187      0.64506519533848
  C           3.47737001739430      0.76190070549323     -0.23635817717030
  C           3.38983146485125     -0.76582481787392     -0.21318132251232
  C           2.01270841548723     -1.24613027719990     -0.61328980844924
  C           0.88643326696277     -0.45259466282564     -0.44645457758025
  C          -0.38395835680919     -0.90656821039704     -0.91831127003752
  C          -0.51679436867273     -2.18655268643339     -1.48942538231198
  C           0.63614315545270     -3.01365347109093     -1.61641962373467
  C           1.89054731291337     -2.54056231877537     -1.19358297432928
  O           3.01226623103556     -3.26750992057605     -1.31288504515805
  C           0.52870680299093     -4.34135717226247     -2.20419462060129
  O           1.52755718462648     -5.07975550109650     -2.34308398648232
  C          -0.80877358660637     -4.82209121453768     -2.64390323946572
  C          -1.96050108883911     -4.00651297677681     -2.52122667271090
  C          -1.83769500567179     -2.63934522821240     -1.95477668588846
  O          -2.82325894416055     -1.87831664666075     -1.86848041546827
  C          -3.20847172956272     -4.53932778779165     -2.95842523758662
  C          -3.25943262137301     -5.83783979232781     -3.49399749226985
  C          -2.10565834574847     -6.61024923206689     -3.60343334064950
  C          -0.87919732766438     -6.11016794936948     -3.18102639685940
  O          -4.30679717082039     -3.76658903437467     -2.83623767259520
  C          -5.56846154832359     -4.27106724308515     -3.25546549103735
  O          -1.41727535724097     -0.06149446658628     -0.81360187085033
  C           3.43566345840985      1.34222204699001     -1.66774707735241
  O           2.76955525148688      2.32975312031306     -1.93977428514523
  C           4.32706725560627      0.73728684881245     -2.74670843663747
  O           4.34594941637806      1.53984560531437     -3.89571082375530
  O           4.77638424718703      1.09630049140406      0.27501683285932
  N          -2.35723023122221      1.74329688796084      4.88778589270379
  O           0.20237669113590      2.50235013063320      5.46085930625439
  H          -0.63026823784884      4.87996570382106      4.70693797317547
  H          -1.85756757410226      4.39125655617252      3.51867459829067
  H          -0.59195503162255      5.52869762895399      3.04852973682750
  H           1.15346794062325      3.85670569615433      3.28021263248259
  H           0.82761656623926      1.54665613690487      3.72500067079122
  H          -1.06890181127966      0.37707523044437      4.04489194708387
  H          -2.60052345112752      2.45444543875727      2.49181981509792
  H          -2.38211798800669      0.74566790805905      2.13286248548827
  H          -1.22424064431562      2.23068558469222      0.49167799158551
  H           0.57134450873945      1.65578194358460     -0.51858796498942
  H           2.53468619666018      0.94820129076449      1.65731335095357
  H           2.41731499153359      2.42564681772198      0.68468467656216
  H           3.63358199893904     -1.09178751363108      0.80732311601467
  H           4.14683444515527     -1.22029698398610     -0.85733069662198
  H           2.73971869937579     -4.13156917311393     -1.73430859215854
  H          -4.20436400080410     -6.24880007432230     -3.82786146862792
  H          -2.17239501514760     -7.61074244068360     -4.02230402827318
  H           0.03164926655552     -6.69255184684742     -3.25540811528158
  H          -5.85486859735441     -5.16512078255844     -2.68675686707969
  H          -6.28031988647653     -3.46948609030308     -3.05331970049222
  H          -5.57412713704329     -4.50169790304180     -4.32853412762852
  H          -2.20444790028828     -0.54785103384223     -1.20090396829102
  H           3.94872617262850     -0.27517810999064     -2.97342306407408
  H           5.34042348011786      0.61209710951529     -2.33969336340340
  H           3.66239758532218      2.22172754101726     -3.74562512330458
  H           4.79197870388829      2.05580223206602      0.43152275602756
  H          -1.95765658011780      1.65584856683051      5.82127041641515
  H          -2.63434952102608      2.72079167574283      4.80375209525868
  H           1.13091041405620      2.74437868340027      5.60142859940807
